        5100
  Built with Packmol                                             
  O           12.651956        5.328167       18.305593
  S           13.603898        4.286151       18.609912
  O           14.487693        4.365549       19.756778
  C           12.742630        2.726114       18.648668
  C           13.513574        1.823958       17.688637
  C           13.951583        2.716525       16.527056
  C           14.578088        3.941823       17.156608
  H           12.721804        2.332004       19.668837
  H           11.722805        2.890484       18.292101
  H           12.896917        0.987022       17.344002
  H           14.397788        1.409952       18.188702
  H           13.065988        3.003450       15.935621
  H           14.646068        2.206304       15.858127
  H           14.570159        4.813186       16.494214
  H           15.602130        3.735153       17.483294
  O           23.478816       22.960081       30.957363
  S           23.816079       23.434318       32.278708
  O           23.484484       22.680395       33.472168
  C           25.552481       23.835457       32.310222
  C           25.618148       25.271338       32.823870
  C           24.416897       25.995146       32.214855
  C           23.220550       25.104177       32.470060
  H           26.089900       23.134436       32.955397
  H           25.936163       23.770780       31.289044
  H           26.562119       25.752527       32.546604
  H           25.539893       25.284060       33.917951
  H           24.577064       26.115465       31.130295
  H           24.278458       26.989375       32.641988
  H           22.398168       25.283267       31.770264
  H           22.861547       25.214043       33.498236
  O            6.952191        1.200930       26.147608
  S            7.431648        2.059065       25.090099
  O            6.892387        1.994189       23.745595
  C            7.369550        3.747190       25.658761
  C            8.776996        4.293240       25.433319
  C            9.734102        3.145092       25.755042
  C            9.208802        1.941724       25.002604
  H            6.609690        4.304574       25.103390
  H            7.122164        3.739759       26.723160
  H            8.971705        5.168850       26.061726
  H            8.901234        4.593681       24.385655
  H            9.717400        2.951836       26.840755
  H           10.762365        3.378894       25.475556
  H            9.535900        0.991338       25.436047
  H            9.493844        1.983954       23.946636
  O           37.479053       41.199179        9.317733
  S           36.460959       40.575009        8.506255
  O           35.166553       41.192059        8.290700
  C           37.173555       40.155924        6.927150
  C           36.876183       38.670518        6.739958
  C           37.017066       38.032155        8.122147
  C           36.212986       38.900125        9.065695
  H           36.733972       40.774042        6.138989
  H           38.250686       40.332134        6.981365
  H           37.557535       38.214637        6.013713
  H           35.850921       38.534681        6.374327
  H           38.080018       38.033935        8.416306
  H           36.671893       36.997334        8.132158
  H           36.535103       38.809527       10.107872
  H           35.143965       38.677986        8.988572
  O           13.674832       21.083120       18.461112
  S           13.951794       19.695132       18.746389
  O           14.639279       19.282665       19.954666
  C           12.433475       18.773056       18.599813
  C           12.750035       17.640636       17.626512
  C           13.685746       18.235299       16.573601
  C           14.768915       18.961431       17.341506
  H           12.118476       18.406632       19.581144
  H           11.669623       19.436899       18.187450
  H           11.838616       17.235885       17.173753
  H           13.259061       16.823350       18.152094
  H           13.121923       18.946439       15.946876
  H           14.100656       17.470221       15.915875
  H           15.258918       19.742922       16.752212
  H           15.518513       18.259902       17.721058
  O           38.148313       27.721618       23.484997
  S           36.876584       28.309227       23.834314
  O           35.777867       27.512606       24.345114
  C           37.168755       29.673061       24.944085
  C           36.456604       30.862767       24.305853
  C           36.656318       30.717194       22.796972
  C           36.288637       29.287410       22.464213
  H           36.782411       29.438275       25.940134
  H           38.246409       29.847269       24.994230
  H           36.855684       31.813244       24.675755
  H           35.385489       30.830801       24.540356
  H           37.714966       30.904768       22.551042
  H           36.053463       31.430819       22.233585
  H           36.748608       28.933506       21.536163
  H           35.202429       29.164184       22.408813
  O           37.960889       28.338736       27.964840
  S           37.362534       28.213655       29.272864
  O           37.414325       26.974905       30.024872
  C           37.963645       29.540757       30.299735
  C           36.709650       30.217284       30.847192
  C           35.684362       30.191719       29.713204
  C           35.669840       28.769270       29.196844
  H           38.605528       29.143912       31.091569
  H           38.532132       30.229122       29.669516
  H           36.919193       31.239908       31.178602
  H           36.322838       29.655282       31.706162
  H           36.007123       30.882392       28.916212
  H           34.696013       30.510037       30.047779
  H           35.303950       28.692515       28.168091
  H           35.076767       28.120834       29.849451
  O           32.326245        9.722048        6.543519
  S           32.528959        8.575838        5.689288
  O           33.795826        7.872235        5.637415
  C           31.225417        7.400562        5.999939
  C           30.619707        7.109256        4.629480
  C           30.634933        8.435248        3.868354
  C           32.033677        8.990644        4.027262
  H           31.631563        6.504377        6.477850
  H           30.490272        7.872133        6.656736
  H           29.605058        6.706586        4.718052
  H           31.231699        6.371449        4.096182
  H           29.899485        9.121778        4.320231
  H           30.367963        8.307551        2.818344
  H           32.080072       10.075613        3.890184
  H           32.730819        8.501080        3.339934
  O            7.199496       31.355391       21.332246
  S            8.135239       31.993851       22.227430
  O            9.315269       32.681762       21.740594
  C            7.230834       33.086911       23.306444
  C            7.637327       32.675022       24.718893
  C            7.773906       31.152351       24.694050
  C            8.626808       30.830349       23.486129
  H            7.481726       34.128285       23.084874
  H            6.163127       32.918768       23.145418
  H            6.899011       33.001802       25.458896
  H            8.602010       33.127098       24.980260
  H            6.774024       30.699818       24.585198
  H            8.214497       30.765870       25.614166
  H            8.479887       29.809334       23.120011
  H            9.687423       30.997804       23.698625
  O           34.250088        1.722347        2.709155
  S           33.437966        2.565551        3.554179
  O           32.515876        2.014724        4.528365
  C           34.499732        3.746243        4.363882
  C           33.887835        5.109182        4.051025
  C           33.370444        5.022382        2.614860
  C           32.565213        3.743310        2.538854
  H           34.541301        3.541888        5.437665
  H           35.498863        3.660616        3.929594
  H           34.622071        5.913458        4.167378
  H           33.052099        5.312227        4.731920
  H           34.227529        4.973970        1.922428
  H           32.772355        5.892967        2.341966
  H           32.476624        3.354842        1.519372
  H           31.568539        3.880743        2.969961
  O           35.169521       29.666324        3.003615
  S           33.807696       29.731452        3.478792
  O           33.483028       30.186094        4.816922
  C           32.840901       30.656927        2.301591
  C           31.662492       29.750154        1.956606
  C           32.218680       28.326335        1.922009
  C           33.014864       28.159094        3.198066
  H           32.523939       31.608234        2.738685
  H           33.460467       30.840158        1.420248
  H           31.209549       30.029680        0.999419
  H           30.889929       29.825017        2.731746
  H           32.878095       28.215298        1.044944
  H           31.427565       27.579801        1.838800
  H           33.773086       27.372786        3.127938
  H           32.355435       27.961870        4.049158
  O           27.822555       14.879587       21.869425
  S           28.516915       14.914225       20.604014
  O           29.923821       15.252567       20.509988
  C           28.234566       13.369490       19.760764
  C           27.699390       13.760702       18.385831
  C           26.800561       14.976974       18.610753
  C           27.602879       15.935756       19.463526
  H           29.164600       12.796786       19.701211
  H           27.485609       12.805991       20.322665
  H           27.151362       12.934711       17.920102
  H           28.529128       14.033625       17.722245
  H           25.890066       14.661384       19.147225
  H           26.489658       15.435528       17.670983
  H           26.975467       16.638160       20.021274
  H           28.327369       16.488424       18.857082
  O           22.268713       15.097860       14.253069
  S           23.010369       15.275851       15.478983
  O           23.275801       16.590178       16.031062
  C           22.272433       14.255449       16.740423
  C           23.421449       13.416992       17.294184
  C           24.311094       13.074303       16.098820
  C           24.547156       14.378266       15.367961
  H           21.803542       14.881235       17.505297
  H           21.520401       13.618934       16.267668
  H           23.053379       12.515100       17.794799
  H           23.995160       14.000028       18.025090
  H           23.781376       12.361945       15.444338
  H           25.248295       12.608307       16.406397
  H           24.813956       14.235553       14.316034
  H           25.317757       14.974114       15.867199
  O           35.326623       34.078813        1.586846
  S           35.045347       34.630629        2.891064
  O           33.705788       34.643049        3.446156
  C           36.155145       33.887763        4.071529
  C           36.825792       35.062586        4.778583
  C           37.044953       36.132637        3.708649
  C           35.722451       36.277429        2.987384
  H           35.598439       33.246138        4.760656
  H           36.890379       33.294604        3.522171
  H           37.768786       34.761784        5.247391
  H           36.167588       35.455652        5.563163
  H           37.825005       35.790962        3.007808
  H           37.376468       37.079053        4.138179
  H           35.829216       36.690177        1.979247
  H           35.024876       36.891098        3.566089
  O           17.742543       17.929207       30.440271
  S           16.431635       17.674988       30.989355
  O           16.249356       17.155701       32.330927
  C           15.442531       19.145318       30.797513
  C           14.177845       18.681212       30.079825
  C           14.625273       17.617161       29.077127
  C           15.507421       16.661026       29.850316
  H           15.231231       19.587985       31.775214
  H           16.000758       19.853947       30.180726
  H           13.670690       19.515406       29.583424
  H           13.477589       18.238455       30.798787
  H           15.202232       18.098691       28.269880
  H           13.778240       17.104502       28.619072
  H           16.198833       16.105152       29.209182
  H           14.906120       15.961440       30.439483
  O           32.731493       17.420696       18.336179
  S           33.569138       17.719594       17.198809
  O           33.165698       17.398564       15.843495
  C           34.033198       19.438910       17.273645
  C           35.556828       19.442410       17.181772
  C           36.032423       18.224090       17.973798
  C           35.200415       17.058522       17.484501
  H           33.562638       19.992536       16.455984
  H           33.701532       19.840297       18.234419
  H           35.979314       20.371639       17.578686
  H           35.871396       19.347048       16.135229
  H           35.851470       18.396123       19.048070
  H           37.099913       18.041669       17.842312
  H           35.143445       16.240730       18.209808
  H           35.578387       16.679978       16.529545
  O           24.774399       12.350100        8.895566
  S           24.409699       11.439584        9.955072
  O           24.158871       10.033327        9.705619
  C           25.605183       11.591138       11.268407
  C           24.781679       11.864633       12.524170
  C           23.629216       12.769380       12.087064
  C           23.030546       12.117568       10.859492
  H           26.197539       10.674915       11.346837
  H           26.257333       12.437765       11.040099
  H           25.388451       12.333571       13.306106
  H           24.380986       10.925020       12.924011
  H           24.026546       13.766323       11.832832
  H           22.888419       12.899219       12.877293
  H           22.486083       12.823361       10.224262
  H           22.373569       11.287196       11.136916
  O           27.943148       29.146890        3.753390
  S           27.301743       30.270167        3.111947
  O           25.955614       30.183687        2.579822
  C           27.405788       31.678444        4.199574
  C           28.033143       32.785084        3.355968
  C           29.076509       32.103526        2.470154
  C           28.379762       30.914004        1.845831
  H           26.410863       31.944946        4.567815
  H           28.054885       31.414623        5.038187
  H           28.482636       33.561151        3.984599
  H           27.269079       33.258676        2.727305
  H           29.919169       31.765271        3.096180
  H           29.476126       32.780339        1.713628
  H           29.075458       30.132779        1.523659
  H           27.754954       31.223470        1.002062
  O           38.337559       21.607258       22.207870
  S           38.915219       20.285045       22.259463
  O           39.929364       19.928399       23.232609
  C           37.593078       19.092134       22.336324
  C           37.867434       18.122205       21.190084
  C           38.408810       18.969187       20.037984
  C           39.495860       19.837050       20.634084
  H           37.587648       18.597430       23.311895
  H           36.648520       19.619240       22.180858
  H           36.961670       17.578898       20.900413
  H           38.622257       17.385800       21.492159
  H           37.596646       19.598560       19.637135
  H           38.786264       18.354033       19.219930
  H           39.687165       20.742705       20.049883
  H           40.425760       19.272749       20.756358
  O           13.849106       13.146949       37.924566
  S           15.226789       12.721686       37.848795
  O           16.248239       13.271212       38.719060
  C           15.276495       10.942722       37.947863
  C           16.075562       10.499977       36.725010
  C           15.676180       11.445811       35.592008
  C           15.784353       12.844544       36.159497
  H           15.740732       10.630114       38.887682
  H           14.250705       10.569400       37.897008
  H           15.869760        9.455026       36.469621
  H           17.150367       10.595144       36.922586
  H           14.635378       11.235859       35.293595
  H           16.306179       11.317703       34.710651
  H           15.168488       13.572094       35.621463
  H           16.825488       13.181982       36.176046
  O           27.504221       19.662249       21.994993
  S           28.281672       19.114332       23.081251
  O           28.106409       19.558582       24.450421
  C           28.155458       17.337196       23.027767
  C           29.597783       16.837746       23.015620
  C           30.382795       17.829002       22.155988
  C           30.013149       19.205452       22.664856
  H           27.592906       16.972828       23.892215
  H           27.640881       17.059345       22.104616
  H           29.664903       15.818865       22.619541
  H           30.003269       16.832461       24.034862
  H           30.076337       17.718055       21.102340
  H           31.458340       17.654300       22.208732
  H           30.170938       19.992170       21.920358
  H           30.563539       19.446571       23.579751
  O           16.556040        3.092868        2.705412
  S           17.912485        3.365810        3.117916
  O           18.858142        4.038345        2.248358
  C           17.868158        4.208314        4.688018
  C           18.773488        3.388306        5.603367
  C           18.543751        1.924376        5.226629
  C           18.654909        1.859987        3.718750
  H           18.212755        5.239999        4.572342
  H           16.837631        4.198488        5.051497
  H           18.548067        3.573339        6.659041
  H           19.823823        3.652802        5.429760
  H           17.532755        1.621394        5.546767
  H           19.258867        1.259487        5.713076
  H           18.135560        0.997574        3.289074
  H           19.702718        1.855834        3.402239
  O           19.619856        9.756156        2.897607
  S           19.800411       11.157381        2.600003
  O           20.617689       11.606697        1.489655
  C           18.195043       11.923313        2.485366
  C           18.250998       13.106667        3.447885
  C           19.071819       12.637669        4.649589
  C           20.322993       12.006315        4.078489
  H           17.996412       12.230451        1.454487
  H           17.446128       11.195839        2.808025
  H           17.247164       13.427857        3.745633
  H           18.751229       13.957855        2.969818
  H           18.492234       11.889044        5.215312
  H           19.307415       13.457659        5.329450
  H           20.792765       11.294206        4.764284
  H           21.049316       12.770654        3.784650
  O           31.667004       18.983040       15.556454
  S           30.713641       18.830593       16.629981
  O           30.896975       19.474923       17.916032
  C           29.091693       19.229458       16.007733
  C           28.226063       18.021029       16.354552
  C           29.116175       16.792640       16.163346
  C           30.405525       17.094493       16.895918
  H           28.727352       20.152210       16.468477
  H           29.163636       19.357184       14.924816
  H           27.332835       17.974280       15.722525
  H           27.898791       18.079572       17.399906
  H           29.314029       16.651487       15.087554
  H           28.643524       15.882721       16.535836
  H           31.253620       16.510010       16.525493
  H           30.290892       16.937699       17.973125
  O           15.035527       16.277695       25.801085
  S           14.297803       16.022940       24.586399
  O           14.900107       16.177256       23.276392
  C           13.563008       14.402970       24.699408
  C           12.078713       14.620635       24.417647
  C           11.713159       15.952422       25.073783
  C           12.769237       16.940266       24.627617
  H           14.031362       13.725319       23.979732
  H           13.714417       14.029783       25.715286
  H           11.472172       13.797567       24.810291
  H           11.905702       14.683116       23.336230
  H           11.739847       15.836433       26.170247
  H           10.710099       16.282145       24.799459
  H           12.870541       17.792467       25.307021
  H           12.568141       17.298298       23.612987
  O           37.744670       23.075529       14.288643
  S           37.874899       23.786595       13.038833
  O           36.845535       24.687661       12.558012
  C           39.440371       24.638803       13.032708
  C           40.128979       24.193278       11.745376
  C           39.772268       22.717817       11.562145
  C           38.272795       22.626058       11.744795
  H           39.281202       25.720353       13.070334
  H           40.008333       24.315333       13.908486
  H           41.212630       24.342659       11.799098
  H           39.748852       24.772443       10.894864
  H           40.286674       22.121295       12.334121
  H           40.084359       22.339227       10.587789
  H           37.938692       21.624659       12.034063
  H           37.746869       22.943907       10.838995
  O           20.384734       24.459778       12.504640
  S           19.973404       25.729759       11.954588
  O           20.925314       26.784300       11.663882
  C           18.985042       25.424651       10.503020
  C           17.687991       26.194325       10.737884
  C           17.377103       26.056920       12.228611
  C           18.659152       26.401862       12.954948
  H           19.515881       25.761025        9.607719
  H           18.793011       24.350674       10.440587
  H           16.873543       25.804076       10.118304
  H           17.827367       27.253017       10.486798
  H           17.086190       25.015180       12.444357
  H           16.552713       26.701927       12.535933
  H           18.707877       25.973846       13.961193
  H           18.801259       27.485922       13.007093
  O            8.627352        8.520245       10.127695
  S            7.793668        8.263910       11.278288
  O            7.618731        9.244049       12.332529
  C            6.190402        7.732698       10.708769
  C            5.932114        6.411497       11.428223
  C            7.279880        5.692232       11.491353
  C            8.271314        6.710315       12.011704
  H            5.437172        8.490988       10.941450
  H            6.245139        7.581619        9.627853
  H            5.179049        5.812073       10.905648
  H            5.567961        6.601305       12.445408
  H            7.565726        5.366926       10.477022
  H            7.241227        4.805408       12.125505
  H            9.305259        6.477501       11.738110
  H            8.191362        6.816305       13.098200
  O           41.070216       13.522604        1.195184
  S           40.381807       13.797746        2.434131
  O           40.614930       13.014036        3.631692
  C           40.584948       15.525277        2.823194
  C           39.168346       16.053137        3.034149
  C           38.291395       15.337264        2.006393
  C           38.626980       13.866373        2.124981
  H           41.211974       15.640532        3.712044
  H           41.057848       16.014285        1.967953
  H           39.124777       17.140853        2.913829
  H           38.822547       15.810084        4.046398
  H           38.541713       15.704316        0.996931
  H           37.229632       15.524015        2.173382
  H           38.391418       13.300528        1.218102
  H           38.119551       13.416016        2.983930
  O            4.944303       20.892283        3.943393
  S            5.370673       21.337393        2.637756
  O            4.432238       21.533485        1.549828
  C            6.347267       22.815427        2.834425
  C            7.656198       22.525463        2.104684
  C            7.972678       21.053285        2.369885
  C            6.699311       20.292818        2.069176
  H            5.816682       23.676340        2.417521
  H            6.523844       22.968129        3.901994
  H            8.461920       23.180402        2.453062
  H            7.530466       22.686787        1.026970
  H            8.249990       20.926713        3.429828
  H            8.807613       20.698539        1.763966
  H            6.649671       19.325358        2.578743
  H            6.572743       20.149840        0.991383
  O           41.199927       22.803987       37.698071
  S           39.915430       23.416752       37.454791
  O           38.750243       22.635820       37.087116
  C           39.506025       24.446832       38.850615
  C           39.197114       25.817585       38.254368
  C           40.182165       26.010313       37.100969
  C           40.113472       24.741992       36.278264
  H           38.655796       24.024882       39.394276
  H           40.379283       24.496555       39.505710
  H           39.293187       26.610549       39.003687
  H           38.170272       25.838120       37.869043
  H           41.197862       26.144183       37.509426
  H           39.945861       26.892264       36.503956
  H           41.014848       24.571381       35.681176
  H           39.233611       24.743655       35.627156
  O           15.192898       30.384657       16.264172
  S           15.212554       29.331426       17.251551
  O           15.426402       29.603857       18.659652
  C           13.732239       28.355701       17.068169
  C           14.221374       26.917068       16.923314
  C           15.504171       26.986551       16.094217
  C           16.354239       28.064139       16.731703
  H           13.080927       28.491631       17.936395
  H           13.217593       28.683641       16.161640
  H           13.466064       26.284006       16.445570
  H           14.443390       26.493401       17.910489
  H           15.251727       27.264955       15.057316
  H           16.023814       26.027853       16.063079
  H           17.088710       28.491946       16.042042
  H           16.861979       27.686474       17.624827
  O           39.736304        7.896999       28.146801
  S           39.038379        6.659045       28.401698
  O           37.816672        6.309299       27.703264
  C           40.197935        5.313836       28.250563
  C           40.075152        4.536109       29.558220
  C           39.864760        5.580553       30.654884
  C           38.765063        6.492641       30.155923
  H           39.955828        4.703672       27.375587
  H           41.199660        5.737281       28.143593
  H           40.965803        3.927202       29.746567
  H           39.208338        3.865082       29.517532
  H           40.797664        6.151607       30.796259
  H           39.607461        5.123507       31.611444
  H           38.784319        7.480951       30.626001
  H           37.780941        6.034953       30.297788
  O           26.103191        6.338048       24.437044
  S           25.585028        5.750798       25.649993
  O           24.199225        5.342072       25.773249
  C           26.635049        4.386636       26.112071
  C           27.035497        4.666990       27.558080
  C           27.228953        6.180330       27.658951
  C           25.999518        6.800150       27.030847
  H           26.095650        3.441398       26.002184
  H           27.510912        4.393689       25.458607
  H           27.946363        4.124639       27.833179
  H           26.234930        4.351879       28.238593
  H           28.131279        6.469476       27.094502
  H           27.364057        6.507808       28.690748
  H           26.170028        7.821971       26.677424
  H           25.154005        6.785656       27.725827
  O            9.886859        8.096524       23.776465
  S           10.831670        8.801541       22.942868
  O           10.674540        8.881319       21.503547
  C           11.044522       10.446722       23.594845
  C           12.551026       10.607440       23.780630
  C           13.067139        9.249094       24.256366
  C           12.478745        8.225252       23.309930
  H           10.626470       11.183641       22.902977
  H           10.526979       10.502526       24.555697
  H           12.783034       11.401174       24.498724
  H           13.022985       10.866590       22.824913
  H           12.711864        9.065348       25.284188
  H           14.157170        9.207244       24.269765
  H           12.428459        7.221858       23.744407
  H           13.037776        8.193220       22.369420
  O           21.704435       27.563219       26.578369
  S           22.084068       28.111860       25.297951
  O           23.385177       27.858416       24.710091
  C           20.820966       27.701529       24.109168
  C           20.419458       29.033876       23.481839
  C           20.458516       30.063573       24.611440
  C           21.789582       29.870532       25.305123
  H           21.211477       26.992515       23.373437
  H           19.979503       27.255997       24.645490
  H           19.426960       28.976629       23.022307
  H           21.138113       29.315012       22.702224
  H           19.631413       29.864216       25.313264
  H           20.340427       31.082686       24.240543
  H           21.790956       30.238942       26.335838
  H           22.598513       30.346039       24.741541
  O           18.092763       35.917930       18.444183
  S           17.332871       37.084634       18.062130
  O           16.556467       37.843157       19.023659
  C           18.409549       38.197509       17.179365
  C           17.691215       38.483000       15.863161
  C           17.024034       37.170577       15.450591
  C           16.288494       36.673951       16.676374
  H           18.580905       39.103114       17.768447
  H           19.357810       37.684656       17.000530
  H           18.387446       38.839955       15.096776
  H           16.925733       39.254606       16.011359
  H           17.800736       36.446077       15.153548
  H           16.351485       37.302457       14.601836
  H           16.109794       35.594208       16.658451
  H           15.339408       37.203593       16.806042
  O           33.465308        7.249307       30.997310
  S           32.973782        8.038924       32.101623
  O           33.024774        7.560348       33.469492
  C           33.727131        9.652419       32.023520
  C           32.560422       10.636225       32.052045
  C           31.443170        9.993367       31.229682
  C           31.311678        8.575572       31.742292
  H           34.412171        9.789982       32.865123
  H           34.275218        9.727779       31.081118
  H           32.849721       11.611615       31.646558
  H           32.218945       10.785917       33.083688
  H           31.732785        9.987728       30.165496
  H           30.504340       10.542381       31.315010
  H           30.856824        7.898445       31.012424
  H           30.743077        8.547356       32.677169
  O           22.909534       20.401381       20.347840
  S           22.436932       19.076742       20.674306
  O           21.211454       18.861336       21.418955
  C           22.383543       18.109841       19.177893
  C           23.193867       16.854118       19.488434
  C           24.360631       17.308342       20.366010
  C           23.753014       18.163040       21.457107
  H           21.346912       17.884529       18.911188
  H           22.855739       18.688952       18.380483
  H           23.544048       16.367281       18.571993
  H           22.576678       16.134250       20.039948
  H           25.060018       17.907186       19.758850
  H           24.916705       16.464376       20.776622
  H           24.469999       18.860219       21.902050
  H           23.307158       17.541531       22.240075
  O            1.990135       28.407478       36.918100
  S            3.219291       28.860148       37.525442
  O            4.504139       28.691048       36.874850
  C            3.025223       30.570033       37.989805
  C            3.398820       30.623786       39.468803
  C            2.862622       29.333195       40.089017
  C            3.325173       28.212410       39.183430
  H            3.667667       31.203961       37.371825
  H            1.978089       30.846459       37.843859
  H            2.978443       31.510274       39.955551
  H            4.489407       30.660826       39.580817
  H            1.760681       29.372447       40.113204
  H            3.212148       29.195262       41.113178
  H            2.706203       27.313505       39.266774
  H            4.372520       27.959172       39.375876
  O            4.999778        5.470796        8.708336
  S            3.667669        5.428464        9.263578
  O            3.299941        4.488235       10.304464
  C            3.218178        7.073229        9.782911
  C            1.885158        7.355515        9.094963
  C            1.978653        6.715146        7.709688
  C            2.484340        5.306732        7.935191
  H            3.144838        7.117619       10.873393
  H            3.989246        7.764109        9.433141
  H            1.688547        8.430967        9.029800
  H            1.064994        6.894694        9.659121
  H            2.696708        7.283193        7.094773
  H            1.019360        6.721510        7.190250
  H            2.967786        4.880223        7.050617
  H            1.676066        4.648123        8.268398
  O            6.140367       13.334140       35.403113
  S            5.425238       13.181022       36.648001
  O            5.455947       11.943480       37.403147
  C            5.869949       14.529074       37.725957
  C            4.542433       15.151842       38.149941
  C            3.632333       15.087000       36.923030
  C            3.726088       13.666532       36.409529
  H            6.448938       14.156955       38.576134
  H            6.467220       15.241969       37.152157
  H            4.676859       16.181360       38.498542
  H            4.098730       14.572092       38.968670
  H            4.001084       15.792505       36.159692
  H            2.604193       15.363387       37.161017
  H            3.463834       13.577468       35.350572
  H            3.100572       12.992459       37.003208
  O           18.551246       19.974714       22.308545
  S           17.620929       20.409687       23.323390
  O           17.531283       21.796227       23.738324
  C           15.993494       19.829138       22.885877
  C           15.497908       19.074449       24.116624
  C           16.716823       18.351148       24.690105
  C           17.816110       19.388018       24.771767
  H           15.349386       20.673704       22.624470
  H           16.089974       19.155748       22.030635
  H           14.696560       18.373359       23.860079
  H           15.105671       19.780482       24.858895
  H           17.011361       17.537617       24.006135
  H           16.508033       17.906331       25.664089
  H           18.818235       18.947789       24.778351
  H           17.687672       20.027855       25.650523
  O           38.053920       30.564775       40.944950
  S           39.329982       30.928772       40.375939
  O           40.421195       31.423283       41.192892
  C           39.917443       29.567854       39.386095
  C           40.217224       30.173741       38.017543
  C           39.129034       31.218556       37.768537
  C           39.065496       32.061086       39.024047
  H           40.801277       29.119004       39.848557
  H           39.117271       28.826946       39.315522
  H           40.227828       29.407871       37.234707
  H           41.199995       30.660922       38.028279
  H           38.165623       30.707403       37.604340
  H           39.337723       31.824459       36.885683
  H           38.102600       32.565919       39.150834
  H           39.874615       32.798002       39.043590
  O           13.819381       33.811166       21.768252
  S           14.399910       34.446489       20.608963
  O           15.307273       33.743636       19.722741
  C           13.087763       35.167769       19.641996
  C           13.491736       36.627469       19.452310
  C           14.145702       37.060684       20.764733
  C           15.155020       35.984756       21.102161
  H           12.982405       34.635151       18.692408
  H           12.160615       35.093199       20.215613
  H           12.627005       37.253105       19.206711
  H           14.216420       36.714485       18.633431
  H           13.375523       37.120048       21.551943
  H           14.613930       38.042702       20.684096
  H           15.399675       35.948531       22.168431
  H           16.071474       36.108762       20.516640
  O           35.048703       26.141768       16.720020
  S           34.998386       27.033194       15.585371
  O           33.773330       27.263547       14.844511
  C           35.687730       28.604270       16.068615
  C           36.770144       28.897363       15.033059
  C           37.425195       27.553611       14.712064
  C           36.289597       26.591717       14.437515
  H           34.906370       29.369554       16.086426
  H           36.123474       28.493765       17.064666
  H           37.499566       29.621684       15.410952
  H           36.318989       29.313650       14.123958
  H           38.007252       27.215481       15.585723
  H           38.108955       27.623587       13.864907
  H           36.571696       25.544732       14.586985
  H           35.896153       26.727627       13.425176
  O           14.183479       31.648040       34.794991
  S           13.710220       30.954890       33.620184
  O           12.384469       31.181046       33.078022
  C           14.911293       31.160251       32.319320
  C           15.232451       29.743946       31.849387
  C           15.229722       28.869841       33.103872
  C           13.949693       29.201580       33.839857
  H           14.499278       31.783677       31.520518
  H           15.797111       31.637960       32.745140
  H           16.196648       29.703360       31.331529
  H           14.459567       29.393213       31.154451
  H           16.103554       29.125363       33.726388
  H           15.293377       27.807790       32.862840
  H           13.999174       28.968672       34.908222
  H           13.093752       28.689414       33.389135
  O           27.596446       23.864268       24.246446
  S           27.936707       22.464938       24.349879
  O           27.396707       21.474744       23.438497
  C           29.712493       22.314976       24.382978
  C           30.017551       21.494091       25.633173
  C           29.014181       21.947815       26.693921
  C           27.657580       21.917728       26.023901
  H           30.067398       21.832453       23.467711
  H           30.138139       23.318189       24.464147
  H           31.050576       21.641104       25.965960
  H           29.876985       20.426053       25.426201
  H           29.259633       22.975591       27.009879
  H           29.040841       21.312932       27.580664
  H           26.927902       22.574401       26.508103
  H           27.264250       20.897225       25.979566
  O            1.641270       27.426786        7.782022
  S            2.341468       27.376038        6.520378
  O            1.860294       26.580742        5.407419
  C            2.622813       29.044995        5.961425
  C            4.123751       29.126194        5.695926
  C            4.793552       28.291739        6.788104
  C            4.052765       26.972432        6.817474
  H            2.027219       29.248612        5.066825
  H            2.333435       29.727139        6.764631
  H            4.476381       30.163029        5.707097
  H            4.355970       28.699898        4.712236
  H            4.687818       28.808955        7.756457
  H            5.859259       28.152458        6.601106
  H            4.146304       26.451819        7.775760
  H            4.386054       26.317004        6.006651
  O           28.926211       26.599729       33.470639
  S           29.546608       25.840872       34.530753
  O           30.009156       26.467897       35.753696
  C           28.480949       24.474145       34.947201
  C           29.367087       23.235479       34.845392
  C           30.296983       23.475687       33.655689
  C           30.872417       24.861794       33.850064
  H           28.065881       24.611398       35.949887
  H           27.673350       24.434909       34.212052
  H           28.770390       22.326540       34.713930
  H           29.961489       23.121230       35.760233
  H           29.710648       23.434705       32.722452
  H           31.080004       22.719036       33.588928
  H           31.220798       25.313972       32.916112
  H           31.686887       24.849680       34.581223
  O            5.691931       35.681680       39.115711
  S            4.939628       35.650625       37.883771
  O            3.747833       36.454141       37.692234
  C            6.059952       35.943145       36.528668
  C            5.838153       34.774666       35.571922
  C            5.601978       33.545842       36.450565
  C            4.563188       33.957144       37.471322
  H            5.846790       36.910742       36.065182
  H            7.079757       35.934925       36.921263
  H            6.695905       34.635147       34.905367
  H            4.952908       34.959007       34.950908
  H            6.544181       33.273739       36.955159
  H            5.276365       32.682750       35.868201
  H            4.589330       33.343891       38.377599
  H            3.557845       33.935155       37.039000
  O           26.713455        6.343458       37.567981
  S           26.029379        6.038995       38.802461
  O           26.603968        6.354520       40.095903
  C           24.382567        6.715788       38.719036
  C           23.456385        5.544710       39.036313
  C           24.086466        4.315680       38.380352
  C           25.542397        4.323634       38.793148
  H           24.276570        7.539046       39.431435
  H           24.214165        7.079197       37.702289
  H           22.442045        5.724921       38.664643
  H           23.397892        5.393827       40.121261
  H           24.001364        4.405253       37.284389
  H           23.587493        3.392157       38.677388
  H           26.183904        3.763461       38.105561
  H           25.664190        3.937254       39.809995
  O            5.088971        4.555740       21.162914
  S            6.159731        5.162708       21.917673
  O            6.026705        5.466954       23.329211
  C            7.641999        4.204738       21.668326
  C            8.690528        5.211289       21.202127
  C            7.955221        6.202726       20.299810
  C            6.719845        6.625224       21.065018
  H            7.927064        3.702258       22.597170
  H            7.442509        3.463815       20.890228
  H            9.512109        4.716866       20.672930
  H            9.113308        5.741568       22.064311
  H            7.667784        5.696827       19.362875
  H            8.579606        7.057807       20.036979
  H            5.922571        6.999437       20.415081
  H            6.964667        7.378219       21.820770
  O           19.013314       15.648857       33.272741
  S           19.164180       14.294589       32.795458
  O           20.322156       13.488110       33.129198
  C           17.686856       13.383476       33.200903
  C           17.220606       12.776664       31.880187
  C           17.506575       13.826869       30.806367
  C           18.936856       14.269374       31.027016
  H           17.907571       12.623936       33.956471
  H           16.946374       14.088433       33.586809
  H           16.158065       12.513301       31.914049
  H           17.789176       11.863966       31.663366
  H           16.819745       14.679370       30.940178
  H           17.355958       13.434443       29.799681
  H           19.144546       15.262296       30.615835
  H           19.641311       13.542238       30.610941
  O           22.899480        8.778758       12.519731
  S           22.077421        8.400386       11.394719
  O           22.526013        8.568053       10.026014
  C           21.540536        6.716651       11.626654
  C           20.020700        6.763469       11.493217
  C           19.577525        8.072631       12.147045
  C           20.468744        9.149945       11.567975
  H           22.006964        6.065960       10.881305
  H           21.832247        6.400869       12.631336
  H           19.550569        5.895879       11.968364
  H           19.735368        6.765742       10.434028
  H           19.725544        8.002127       13.237696
  H           18.521986        8.282512       11.968471
  H           20.542434       10.033419       12.209959
  H           20.129689        9.445408       10.570055
  O           26.176266       31.492225       28.090878
  S           27.209601       30.960045       27.234373
  O           28.485882       30.513659       27.758344
  C           26.505587       29.660643       26.237919
  C           26.843761       30.038074       24.798099
  C           26.723622       31.560287       24.719132
  C           27.505251       32.101397       25.896611
  H           26.926132       28.693298       26.527547
  H           25.424089       29.658439       26.394629
  H           26.173813       29.543110       24.086987
  H           27.871626       29.736984       24.561164
  H           25.661659       31.845614       24.804117
  H           27.097466       31.951770       23.771988
  H           27.187992       33.105899       26.193969
  H           28.579871       32.099606       25.688552
  O           29.720600        8.070272       14.621193
  S           29.421093        9.355393       14.035225
  O           29.867941        9.714024       12.703155
  C           27.664774        9.635704       14.152577
  C           27.524986       10.991590       14.839551
  C           28.638072       11.053794       15.885959
  C           29.906288       10.642528       15.169936
  H           27.213226        9.621944       13.156377
  H           27.233082        8.842594       14.768059
  H           26.535980       11.109051       15.295150
  H           27.659984       11.799392       14.109804
  H           28.412575       10.343100       16.698649
  H           28.728254       12.046582       16.329060
  H           30.675717       10.262365       15.849315
  H           30.310572       11.471399       14.580337
  O           14.598494       11.421368       16.740401
  S           13.944893       12.668032       17.061703
  O           14.108885       13.310037       18.351523
  C           14.311537       13.847264       15.776408
  C           12.951909       14.362557       15.311884
  C           12.006636       13.161458       15.352145
  C           12.202871       12.522347       16.709800
  H           14.950819       14.644308       16.166971
  H           14.824311       13.321503       14.967186
  H           13.010324       14.796463       14.307985
  H           12.589558       15.139491       15.996265
  H           12.285613       12.452915       14.554311
  H           10.967961       13.452413       15.189052
  H           11.910824       11.467665       16.731124
  H           11.659376       13.072134       17.484686
  O           22.877237        5.717398       34.034039
  S           22.324405        6.517817       35.100953
  O           22.585832        6.222237       36.496298
  C           22.716549        8.228041       34.787332
  C           21.377029        8.957921       34.840813
  C           20.354411        8.014925       34.206139
  C           20.563278        6.669083       34.865899
  H           23.424618        8.595990       35.535498
  H           23.157807        8.299567       33.790148
  H           21.422806        9.916980       34.313927
  H           21.097637        9.156752       35.882786
  H           20.550613        7.942214       33.123264
  H           19.332122        8.373409       34.334648
  H           20.200994        5.834659       34.257140
  H           20.091599        6.638497       35.853159
  O            3.047534       23.830041       25.527827
  S            4.141910       23.569658       26.432892
  O            4.720569       22.247851       26.576698
  C            5.444405       24.739344       26.097720
  C            5.748297       25.390578       27.444362
  C            4.403455       25.540644       28.156176
  C            3.723566       24.192769       28.050427
  H            6.312797       24.225949       25.674847
  H            5.065428       25.477447       25.386537
  H            6.247707       26.357030       27.317637
  H            6.407727       24.743365       28.035604
  H            3.804152       26.310356       27.641608
  H            4.522631       25.852502       29.194753
  H            2.635289       24.254857       28.149923
  H            4.123077       23.492473       28.790748
  O           31.015375       20.170672        3.815733
  S           30.577171       21.434135        4.360013
  O           30.242494       22.560650        3.510511
  C           29.223623       21.129662        5.479032
  C           29.632320       21.801501        6.787274
  C           31.138453       21.577973        6.926562
  C           31.742949       21.973597        5.596800
  H           28.295944       21.539514        5.069235
  H           29.126854       20.049243        5.611435
  H           29.082474       21.386614        7.638766
  H           29.422456       22.877153        6.740041
  H           31.329985       20.510860        7.129008
  H           31.563147       22.153292        7.750420
  H           32.715321       21.505443        5.413972
  H           31.835254       23.061253        5.515657
  O            5.383761       26.020422        1.555529
  S            4.522485       26.430991        2.639152
  O            5.043646       26.753304        3.953383
  C            3.503629       27.779418        2.072868
  C            2.070974       27.346794        2.373260
  C            2.015301       25.843674        2.098796
  C            3.203620       25.244458        2.819239
  H            3.779556       28.703362        2.589290
  H            3.656726       27.894230        0.996960
  H            1.350048       27.896108        1.758427
  H            1.832767       27.537855        3.426851
  H            2.101219       25.669362        1.013147
  H            1.075596       25.401228        2.432408
  H            3.515521       24.282316        2.400789
  H            2.999095       25.133508        3.888800
  O           33.411061       26.271227       19.413720
  S           32.517887       25.156934       19.201136
  O           31.120596       25.347373       18.863481
  C           33.257747       24.057681       18.008975
  C           33.260084       22.687432       18.681517
  C           33.563242       22.940339       20.158654
  C           32.626612       24.046998       20.592510
  H           32.682023       24.067221       17.078948
  H           34.278542       24.398117       17.818498
  H           33.999515       22.019823       18.226501
  H           32.273652       22.217774       18.583168
  H           34.611615       23.266398       20.263529
  H           33.433478       22.041344       20.762864
  H           32.988074       24.592375       21.470012
  H           31.622378       23.657489       20.787178
  O            5.711107       17.918440        6.862221
  S            5.797466       19.063876        5.987510
  O            5.743088       18.932908        4.544392
  C            4.587341       20.265196        6.506573
  C            5.372127       21.560041        6.699934
  C            6.722091       21.153612        7.291722
  C            7.234709       20.025139        6.423407
  H            3.801812       20.359893        5.751274
  H            4.155870       19.928125        7.452309
  H            4.838284       22.257355        7.354352
  H            5.527656       22.054305        5.733076
  H            6.573655       20.800450        8.325958
  H            7.423049       21.988912        7.323865
  H            7.961002       19.387503        6.937235
  H            7.671476       20.410312        5.496597
  O           12.068706        5.720107       21.233081
  S           11.816204        4.963974       22.436869
  O           11.056710        5.513799       23.543016
  C           11.117687        3.389012       21.980179
  C           12.004329        2.349872       22.661321
  C           13.431671        2.892198       22.581472
  C           13.359926        4.325808       23.060862
  H           10.075451        3.329662       22.306862
  H           11.173138        3.293570       20.892973
  H           11.917072        1.371017       22.177866
  H           11.711918        2.235918       23.712421
  H           13.774970        2.858173       21.533909
  H           14.128031        2.301214       23.178063
  H           14.187203        4.940737       22.692655
  H           13.322363        4.372800       24.153785
  O           22.814890       32.977508       11.954693
  S           24.106668       32.931530       11.311424
  O           25.340444       32.875067       12.071232
  C           24.098774       31.606352       10.119434
  C           24.538059       32.250977        8.807417
  C           23.906228       33.643149        8.786286
  C           24.219435       34.263119       10.130807
  H           24.772816       30.806705       10.439951
  H           23.078066       31.223951       10.041168
  H           24.226399       31.653380        7.944141
  H           25.630871       32.342048        8.779721
  H           22.815270       33.544872        8.657634
  H           24.283786       34.251522        7.963222
  H           23.520478       35.058935       10.406918
  H           25.244565       34.645880       10.157302
  O           30.283411       33.880245       22.726899
  S           30.808198       32.970911       23.718014
  O           30.522802       33.128223       25.130990
  C           30.406254       31.305165       23.227369
  C           31.737655       30.558671       23.231692
  C           32.780990       31.548976       22.713478
  C           32.572028       32.824260       23.500997
  H           29.680567       30.872104       23.921873
  H           29.983567       31.338762       22.220191
  H           31.693078       29.657747       22.610525
  H           31.995137       30.253417       24.253369
  H           32.606290       31.731915       21.639973
  H           33.797246       31.168023       22.823929
  H           32.953673       33.711332       22.985682
  H           33.024939       32.750585       24.494749
  O           41.087811       12.103520       37.885414
  S           40.084845       11.816509       36.887274
  O           40.347899       11.968983       35.469440
  C           39.441537       10.181101       37.184924
  C           37.928050       10.360095       37.269886
  C           37.697786       11.690791       37.986842
  C           38.588456       12.697823       37.292008
  H           39.739158        9.505964       36.377390
  H           39.843991        9.824077       38.136115
  H           37.456160        9.527769       37.802854
  H           37.496837       10.405209       36.262255
  H           37.992109       11.588907       39.044856
  H           36.649948       11.993288       37.961722
  H           38.829076       13.560443       37.921364
  H           38.138505       13.038537       36.354160
  O            0.995420       21.470291        9.294159
  S            2.272938       22.038656        8.934286
  O            3.507837       21.288245        9.055155
  C            2.154350       22.697621        7.282408
  C            2.624719       24.145089        7.398548
  C            2.096429       24.656602        8.739094
  C            2.469538       23.605721        9.762147
  H            2.771578       22.109984        6.596686
  H            1.107534       22.653583        6.971865
  H            2.260278       24.752321        6.563114
  H            3.720880       24.186506        7.394674
  H            0.999806       24.759306        8.681902
  H            2.508156       25.633812        8.995300
  H            1.833983       23.632798       10.652898
  H            3.520201       23.698377       10.054760
  O           16.320419       14.485935       25.741408
  S           16.536322       13.736095       24.526613
  O           16.048948       14.199776       23.242024
  C           18.275201       13.369562       24.388951
  C           18.347354       11.856870       24.198017
  C           17.248909       11.264839       25.081600
  C           15.995509       12.054946       24.773510
  H           18.711276       13.919298       23.549826
  H           18.761334       13.666527       25.321521
  H           19.334910       11.466549       24.466124
  H           18.154768       11.599893       23.149126
  H           17.527530       11.391495       26.141189
  H           17.108616       10.198202       24.900761
  H           15.259878       12.020968       25.583321
  H           15.535079       11.712823       23.841278
  O           37.962849       34.788969       19.780753
  S           38.193997       35.226910       21.136990
  O           39.450231       35.824167       21.546697
  C           36.856382       36.300971       21.620910
  C           36.322904       35.707781       22.922228
  C           36.401755       34.189461       22.760094
  C           37.798355       33.896377       22.256298
  H           37.220856       37.324783       21.745287
  H           36.093706       36.269656       20.838898
  H           35.298519       36.039425       23.122594
  H           36.951479       36.021324       23.764775
  H           35.653612       33.864198       22.017877
  H           36.191345       33.666625       23.694155
  H           37.869839       32.939641       21.729377
  H           38.524492       33.922677       23.074914
  O            4.737450       36.949233       23.686199
  S            4.708653       38.337995       23.292357
  O            3.997538       38.785649       22.110571
  C            4.182275       39.311895       24.689298
  C            5.262049       40.377366       24.858888
  C            6.590020       39.690250       24.539260
  C            6.377728       38.962446       23.229514
  H            3.194931       39.742287       24.498471
  H            4.140926       38.658699       25.564412
  H            5.257036       40.794231       25.871655
  H            5.093776       41.200010       24.153025
  H            6.828386       38.970382       25.340117
  H            7.414470       40.401926       24.476816
  H            7.075517       38.131579       23.085114
  H            6.443692       39.652084       22.382078
  O           10.075970       15.543368       36.069638
  S            9.313629       16.613952       35.471904
  O            8.985747       17.822905       36.202402
  C           10.080545       17.060635       33.926164
  C            8.962497       16.976888       32.890377
  C            8.101887       15.778290       33.291021
  C            7.818199       15.944463       34.768217
  H           10.513477       18.062756       33.995614
  H           10.864510       16.330443       33.710715
  H            9.363360       16.865036       31.877313
  H            8.356076       17.890619       32.915850
  H            8.669060       14.848951       33.114830
  H            7.182196       15.721332       32.707049
  H            7.569610       15.000672       35.263758
  H            7.017134       16.671566       34.934696
  O           35.906954        9.133816       15.919541
  S           35.256240        9.535272       14.694794
  O           34.754298       10.881444       14.498384
  C           36.312416        9.104799       13.325054
  C           35.433398        8.275972       12.392169
  C           34.540058        7.425282       13.295535
  C           33.954924        8.376096       14.317186
  H           36.695880       10.010013       12.845427
  H           37.142475        8.506712       13.709104
  H           36.036474        7.655105       11.721108
  H           34.811316        8.936139       11.775328
  H           35.155091        6.659428       13.797135
  H           33.761645        6.908799       12.732136
  H           33.634303        7.872247       15.234486
  H           33.118270        8.940810       13.893858
  O            5.836698        9.132106       37.345094
  S            7.219128        9.329440       37.711901
  O            7.773790       10.651384       37.929876
  C            7.580603        8.308471       39.127514
  C            8.804123        7.490043       38.723688
  C            8.618185        7.150666       37.244482
  C            8.260340        8.452240       36.560339
  H            7.765603        8.933467       40.005953
  H            6.721018        7.658167       39.307562
  H            8.900998        6.586954       39.335689
  H            9.715712        8.086360       38.852963
  H            7.793284        6.426220       37.139047
  H            9.512730        6.699901       36.812392
  H            7.723289        8.305334       35.617951
  H            9.152293        9.062336       36.386259
  O           31.315429        5.251490       26.651867
  S           31.790089        4.008584       26.091079
  O           32.903214        3.961306       25.162953
  C           32.098378        2.866880       27.424672
  C           31.304075        1.613974       27.065213
  C           30.005296        2.104310       26.424475
  C           30.413592        3.123450       25.382916
  H           33.171009        2.671976       27.513977
  H           31.722673        3.312526       28.349034
  H           31.109997        0.996310       27.948572
  H           31.864373        1.006769       26.343640
  H           29.376727        2.579807       27.195969
  H           29.431010        1.286827       25.986277
  H           29.611894        3.826979       25.137095
  H           30.767080        2.632441       24.470745
  O           11.180767       29.636607       30.771727
  S            9.830018       29.366559       31.204337
  O            8.721068       30.226416       30.838855
  C            9.424362       27.684273       30.777307
  C            8.945603       27.049220       32.080149
  C            9.824077       27.635448       33.185781
  C            9.818019       29.133628       32.972189
  H            8.658457       27.667515       29.996533
  H           10.333023       27.194868       30.418117
  H            9.018727       25.957070       32.043258
  H            7.896815       27.312559       32.264529
  H           10.848796       27.240743       33.083032
  H            9.463695       27.367780       34.180054
  H           10.687108       29.631132       33.414088
  H            8.898211       29.581822       33.361001
  O           25.182429       10.571234       22.561568
  S           24.898335        9.999123       21.266739
  O           23.683433       10.312129       20.539594
  C           26.300021       10.282271       20.202736
  C           26.672445        8.903967       19.662848
  C           26.450060        7.922971       20.814365
  C           25.071619        8.226846       21.360041
  H           26.034579       10.985939       19.408449
  H           27.110917       10.693591       20.808923
  H           27.707958        8.880231       19.306969
  H           26.019136        8.639431       18.822309
  H           27.213388        8.096065       21.591391
  H           26.536274        6.884922       20.490141
  H           24.941129        7.899112       22.396218
  H           24.293759        7.782516       20.731070
  O           26.602833       32.290525       34.570646
  S           26.797326       30.973461       35.129317
  O           26.026637       29.829236       34.682677
  C           28.532059       30.572869       35.044297
  C           28.919457       30.185221       36.468920
  C           28.134029       31.118334       37.390984
  C           26.700858       31.072577       36.907116
  H           28.697227       29.761565       34.329451
  H           29.073355       31.466749       34.724643
  H           29.999234       30.275500       36.628396
  H           28.633448       29.144963       36.667320
  H           28.534282       32.141858       37.298265
  H           28.216379       30.823594       38.438097
  H           26.124899       31.957765       37.194888
  H           26.194685       30.170102       37.264086
  O            2.195581        3.847069        1.267103
  S            2.889325        4.249439        2.467694
  O            2.245072        5.042271        3.496799
  C            3.610032        2.801807        3.217323
  C            5.086286        3.143837        3.400596
  C            5.487967        3.961508        2.172643
  C            4.428191        5.030909        2.019483
  H            3.110518        2.579274        4.164669
  H            3.488810        1.963712        2.526597
  H            5.696779        2.240092        3.500809
  H            5.223554        3.747596        4.306098
  H            5.496861        3.305142        1.286356
  H            6.484739        4.392595        2.276126
  H            4.358927        5.419866        0.998692
  H            4.598948        5.855698        2.718530
  O           27.561284       34.032347       15.694705
  S           27.521495       35.232099       14.892451
  O           27.486393       35.185280       13.443563
  C           26.182987       36.256594       15.471942
  C           26.817346       37.616451       15.751718
  C           28.202557       37.327339       16.330861
  C           28.840824       36.318882       15.400363
  H           25.394037       36.309567       14.716130
  H           25.789151       35.815733       16.391037
  H           26.206876       38.208114       16.442197
  H           26.919444       38.183752       14.818420
  H           28.091515       36.896619       17.340093
  H           28.805525       38.232012       16.420847
  H           29.632392       35.735710       15.881434
  H           29.234483       36.806873       14.503146
  O            9.819810       12.439103       25.322993
  S           10.053668       13.262648       26.485613
  O            9.876816       14.701558       26.454607
  C            9.122443       12.593405       27.850139
  C           10.142272       12.401430       28.969512
  C           11.432677       11.937907       28.292903
  C           11.669082       12.896443       27.145940
  H            8.317280       13.279043       28.129629
  H            8.702892       11.633613       27.538728
  H            9.791429       11.674637       29.709904
  H           10.318499       13.353038       29.485929
  H           11.293864       10.913082       27.909675
  H           12.275115       11.921625       28.985819
  H           12.300180       12.472301       26.358591
  H           12.103930       13.835528       27.502487
  O           39.685227       36.212116        8.524403
  S           39.538543       34.987287        9.274655
  O           40.596314       34.477490       10.125495
  C           38.028988       35.078470       10.218015
  C           37.253837       33.816616        9.848196
  C           37.511470       33.581431        8.359534
  C           39.009671       33.687609        8.174277
  H           38.254901       35.133551       11.286860
  H           37.485094       35.973397        9.905789
  H           36.185023       33.927275       10.060073
  H           37.627132       32.962191       10.426045
  H           36.999485       34.363662        7.774396
  H           37.130750       32.615064        8.025939
  H           39.296061       33.936453        7.147555
  H           39.509876       32.764648        8.484177
  O           29.392224       29.010160       38.847823
  S           30.093682       29.660831       39.929112
  O           29.453977       29.940770       41.199982
  C           31.615192       28.781550       40.227225
  C           32.707820       29.845055       40.156361
  C           32.289958       30.809288       39.045756
  C           30.843737       31.159903       39.320917
  H           31.578177       28.282707       41.199997
  H           31.742441       28.041102       39.433660
  H           33.687749       29.398970       39.955745
  H           32.770090       30.385316       41.109011
  H           32.379294       30.301077       38.071004
  H           32.922265       31.697763       39.015753
  H           30.310256       31.501548       38.428293
  H           30.766113       31.914954       40.109569
  O           21.133809       32.647021       25.969425
  S           21.759582       33.387306       27.039465
  O           21.408779       33.170567       28.429667
  C           23.528074       33.255369       26.860497
  C           24.034709       34.695237       26.859421
  C           22.992074       35.511293       26.094720
  C           21.651268       35.131489       26.684794
  H           23.947043       32.664146       27.679899
  H           23.738939       32.769172       25.904804
  H           25.024563       34.770597       26.396810
  H           24.112180       35.068158       27.888123
  H           23.028841       35.237951       25.026856
  H           23.176821       36.583878       26.169083
  H           20.816558       35.316130       26.001224
  H           21.476713       35.653588       27.630861
  O            0.964164       16.562552        3.814758
  S            1.792336       17.654648        3.360823
  O            1.340501       19.031669        3.409382
  C            3.377696       17.535975        4.166770
  C            4.400481       17.554743        3.033872
  C            3.778732       16.756301        1.887696
  C            2.376972       17.299552        1.714066
  H            3.509440       18.368173        4.864330
  H            3.415258       16.587191        4.707694
  H            5.357083       17.126355        3.351517
  H            4.582696       18.586146        2.707826
  H            3.741532       15.689838        2.166394
  H            4.360580       16.838820        0.968597
  H            1.700650       16.588187        1.229660
  H            2.387052       18.240019        1.154139
  O           11.433380       16.066184        6.536564
  S           11.723595       14.983959        5.625980
  O           11.729984       15.171998        4.188169
  C           13.259990       14.226294        6.118357
  C           12.940329       12.740900        6.264374
  C           11.532573       12.666066        6.856340
  C           10.678781       13.593392        6.018899
  H           14.032271       14.417088        5.367570
  H           13.559595       14.654829        7.077937
  H           13.673333       12.234794        6.901603
  H           12.952795       12.254407        5.281282
  H           11.559494       13.014746        7.902331
  H           11.142144       11.647408        6.856241
  H            9.785176       13.942711        6.545726
  H           10.389875       13.117069        5.076694
  O           32.576627       31.040729       11.739980
  S           33.553529       31.275185       10.703017
  O           33.452089       32.400141        9.793685
  C           35.175570       31.271488       11.441912
  C           35.976664       30.253934       10.633993
  C           35.007404       29.119540       10.300099
  C           33.763571       29.782959        9.749684
  H           35.610479       32.274368       11.402079
  H           35.076153       30.949764       12.481532
  H           36.844200       29.891146       11.195478
  H           36.340944       30.712132        9.706279
  H           34.766189       28.564779       11.222300
  H           35.435536       28.411270        9.589355
  H           32.869690       29.158256        9.843613
  H           33.903614       30.072946        8.703551
  O           34.243971       10.910513       16.692914
  S           33.321662       11.734377       15.947799
  O           32.466306       11.185677       14.913394
  C           32.319813       12.650027       17.103171
  C           32.465275       14.110302       16.683245
  C           33.917703       14.280754       16.236929
  C           34.197366       13.138779       15.284101
  H           31.283311       12.303026       17.061289
  H           32.725018       12.492432       18.105754
  H           32.213246       14.789646       17.504508
  H           31.793921       14.329644       15.843916
  H           34.578534       14.212103       17.117264
  H           34.090491       15.250130       15.767296
  H           35.262969       12.902201       15.202739
  H           33.788129       13.347382       14.290566
  O           18.595888       31.505226        6.651122
  S           18.537497       31.584627        8.091568
  O           18.008850       30.502169        8.898734
  C           20.153599       32.025839        8.700292
  C           19.923985       33.249916        9.582796
  C           18.836627       34.073238        8.891715
  C           17.725083       33.101005        8.560909
  H           20.590878       31.188022        9.251064
  H           20.783722       32.277777        7.843745
  H           20.845415       33.827328        9.713420
  H           19.575491       32.938817       10.575303
  H           19.246233       34.511830        7.966372
  H           18.483001       34.892776        9.518937
  H           17.087336       33.445119        7.740564
  H           17.111759       32.891148        9.442892
  O           10.711918       40.044714       26.242139
  S            9.768217       39.214981       26.953175
  O            9.120051       38.079653       26.325789
  C           10.519628       38.682998       28.479404
  C            9.527273       39.080111       29.569098
  C            8.939179       40.424045       29.138068
  C            8.520706       40.251611       27.693995
  H           10.704421       37.605192       28.453242
  H           11.463781       39.219843       28.600124
  H           10.014021       39.148065       30.547852
  H            8.726724       38.333513       29.639903
  H            9.715927       41.202878       29.218573
  H            8.101100       40.725066       29.768235
  H            8.461296       41.200048       27.150822
  H            7.564144       39.724332       27.622819
  O           13.801558       31.798066       27.176879
  S           12.734915       31.513356       28.107370
  O           12.968596       31.413372       29.534989
  C           11.407117       32.666367       27.816651
  C           10.166905       31.799742       27.614822
  C           10.632496       30.566646       26.839903
  C           11.859319       30.057655       27.565183
  H           11.307843       33.349141       28.665452
  H           11.637809       33.230772       26.909772
  H            9.383015       32.342586       27.075991
  H            9.759908       31.492401       28.586004
  H           10.894744       30.862465       25.810283
  H            9.854601       29.804314       26.778022
  H           12.511734       29.452870       26.927460
  H           11.579810       29.486010       28.455799
  O           30.522663       17.825340       32.669990
  S           31.195476       18.287246       33.861025
  O           30.778118       17.874256       35.186902
  C           32.941694       17.978745       33.680609
  C           33.610926       19.325810       33.940311
  C           32.694222       20.381344       33.321198
  C           31.300514       20.066849       33.820069
  H           33.263437       17.207744       34.386682
  H           33.125209       17.645451       32.656189
  H           34.617023       19.362313       33.509109
  H           33.698285       19.501258       35.019610
  H           32.733015       20.296447       32.222249
  H           32.999093       21.394628       33.586544
  H           30.514783       20.466293       33.171091
  H           31.157498       20.432587       34.841774
  O           13.047698        5.055127        5.439571
  S           11.783420        5.512265        5.966093
  O           10.990828        4.701733        6.870269
  C           12.020751        7.124003        6.689263
  C           10.973293        8.014154        6.025664
  C           10.886233        7.554132        4.570122
  C           10.747727        6.047871        4.616958
  H           11.899380        7.071799        7.775101
  H           13.030080        7.463043        6.443280
  H           11.243963        9.072887        6.098623
  H           10.000161        7.878808        6.513512
  H           11.814405        7.834579        4.044532
  H           10.052685        8.020155        4.042751
  H           11.069606        5.560807        3.691074
  H            9.719074        5.755358        4.850216
  O            6.940126       12.974317        3.174621
  S            6.561565       14.321177        3.531358
  O            6.372099       15.354908        2.532258
  C            5.114806       14.246465        4.569773
  C            5.481391       15.044823        5.818028
  C            6.953201       14.740619        6.099157
  C            7.676258       14.929479        4.783208
  H            4.251142       14.663686        4.043930
  H            4.928152       13.199202        4.819975
  H            4.844331       14.774705        6.666963
  H            5.356768       16.118133        5.628884
  H            7.049494       13.695984        6.439546
  H            7.361946       15.383030        6.880396
  H            8.620988       14.379001        4.732621
  H            7.855471       15.990481        4.582563
  O           21.174389        5.441172       26.982820
  S           21.347379        6.793628       27.457726
  O           21.748871        7.082589       28.820813
  C           22.436920        7.651842       26.338185
  C           21.677050        8.912549       25.934312
  C           20.209167        8.502395       25.812281
  C           19.883652        7.738377       27.077397
  H           23.386533        7.875156       26.833025
  H           22.610724        7.009234       25.471555
  H           22.059622        9.326578       24.995313
  H           21.781562        9.680426       26.710677
  H           20.086484        7.849835       24.931648
  H           19.553047        9.363951       25.680646
  H           19.030550        7.062666       26.960212
  H           19.701855        8.421787       27.912861
  O           28.082286       37.780420       12.874972
  S           28.949881       38.886565       13.204095
  O           29.088911       39.374667       14.562450
  C           30.569696       38.552917       12.539358
  C           30.914619       39.781007       11.701073
  C           29.610598       40.218964       11.033597
  C           28.573407       40.262948       12.134732
  H           31.283430       38.385556       13.351192
  H           30.503771       37.660785       11.911699
  H           31.690382       39.555477       10.961595
  H           31.286092       40.585949       12.347119
  H           29.324932       39.474632       10.271517
  H           29.710398       41.183613       10.534005
  H           27.549288       40.167716       11.760284
  H           28.667129       41.179408       12.725847
  O           22.665508       23.459855        6.998442
  S           22.199602       22.188678        6.496804
  O           20.797080       21.937805        6.227181
  C           23.152383       21.767065        5.050619
  C           23.698985       20.369511        5.329849
  C           24.041571       20.337776        6.819624
  C           22.826799       20.884024        7.538054
  H           22.519221       21.799199        4.159230
  H           23.966236       22.490114        4.955525
  H           24.574990       20.151395        4.709736
  H           22.933195       19.614949        5.111899
  H           24.915738       20.984189        7.005045
  H           24.294143       19.332630        7.160195
  H           23.061809       21.285722        8.528766
  H           22.045885       20.121858        7.623935
  O            8.684560        7.185798       27.961853
  S            9.070470        8.425387       28.593592
  O            9.566166        9.553881       27.829728
  C            7.729662        8.972770       29.632632
  C            8.357221        9.191846       31.006705
  C            9.393014        8.080908       31.182066
  C           10.217821        8.076434       29.913258
  H            7.284581        9.884942       29.224779
  H            6.980838        8.177763       29.670402
  H            7.602114        9.168187       31.799645
  H            8.855211       10.168603       31.042073
  H            8.873336        7.115445       31.301301
  H           10.013036        8.235258       32.066288
  H           10.710067        7.116552       29.727732
  H           10.963440        8.877660       29.926977
  O           26.686050       31.871489       10.651621
  S           27.806771       31.889374        9.741531
  O           27.903778       30.968193        8.625863
  C           28.020912       33.553378        9.139671
  C           29.481096       33.893492        9.426173
  C           29.811060       33.247249       10.772017
  C           29.322053       31.818127       10.678838
  H           27.780301       33.602835        8.073762
  H           27.352146       34.208694        9.703154
  H           29.642586       34.976511        9.448320
  H           30.126449       33.470554        8.646466
  H           29.273398       33.781762       11.573026
  H           30.877067       33.295382       10.998761
  H           29.127512       31.369043       11.657907
  H           30.029797       31.196677       10.121167
  O           36.913487       12.250514       25.405782
  S           36.382249       13.578538       25.602602
  O           35.303523       14.101915       24.787049
  C           35.953135       13.767602       27.322229
  C           36.679350       15.031470       27.775163
  C           38.029400       15.025341       27.057440
  C           37.725281       14.751551       25.600474
  H           34.867750       13.844961       27.433835
  H           36.321769       12.893072       27.863991
  H           36.801091       15.054584       28.863347
  H           36.108881       15.920400       27.479075
  H           38.657772       14.219690       27.472741
  H           38.566657       15.965761       27.188076
  H           38.578443       14.332052       25.058040
  H           37.375481       15.657524       25.095544
  O           27.331273       18.278485        3.450578
  S           27.071626       18.175116        4.867087
  O           26.698526       19.327210        5.664693
  C           25.879332       16.876721        5.130913
  C           26.524487       15.948869        6.156957
  C           28.014291       15.909043        5.815347
  C           28.443326       17.351315        5.654165
  H           24.933808       17.298827        5.483491
  H           25.724477       16.357716        4.181779
  H           26.077411       14.949441        6.129290
  H           26.389105       16.352758        7.167821
  H           28.155107       15.362187        4.867972
  H           28.596733       15.397813        6.583139
  H           29.341270       17.463070        5.038284
  H           28.601868       17.824857        6.628189
  O           14.027548       11.576540       31.446914
  S           14.131603       12.996491       31.207102
  O           15.067648       13.545482       30.245266
  C           12.503316       13.632856       30.859650
  C           12.310783       14.785865       31.841180
  C           12.975339       14.347315       33.146491
  C           14.348159       13.837925       32.764276
  H           12.439049       13.955259       29.816373
  H           11.778527       12.837183       31.048816
  H           11.249617       15.014972       31.985880
  H           12.803929       15.689509       31.462320
  H           12.381953       13.536638       33.601568
  H           13.033749       15.161843       33.869840
  H           14.766532       13.144990       33.501097
  H           15.043169       14.667580       32.600769
  O           17.060984       20.670914       40.701670
  S           16.357113       21.268287       39.591576
  O           16.293121       20.630194       38.291022
  C           14.703816       21.672477       40.120955
  C           14.529523       23.150551       39.782103
  C           15.878935       23.812259       40.063227
  C           16.916839       22.948116       39.380431
  H           13.977205       21.036157       39.607504
  H           14.642321       21.511977       41.200148
  H           13.726787       23.604392       40.372986
  H           14.276393       23.266547       38.721080
  H           16.055030       23.829695       41.151843
  H           15.912173       24.842261       39.705330
  H           17.916149       23.059372       39.812985
  H           16.954038       23.154290       38.306090
  O           15.748876       27.885167       10.864442
  S           15.831626       28.877722       11.909710
  O           15.622747       28.541865       13.304798
  C           17.381490       29.742948       11.747517
  C           17.006208       31.221568       11.695131
  C           15.706866       31.301351       10.893167
  C           14.785381       30.258869       11.488396
  H           18.035790       29.506146       12.591506
  H           17.851476       29.428593       10.812373
  H           17.800706       31.819853       11.236517
  H           16.837001       31.603502       12.709427
  H           15.917081       31.064472        9.836712
  H           15.264953       32.298146       10.927985
  H           14.006482       29.930830       10.792834
  H           14.326002       30.622944       12.412798
  O           25.418697       22.830764       12.280017
  S           24.534309       22.399888       11.223228
  O           24.306117       20.996520       10.938297
  C           22.961637       23.211640       11.434801
  C           22.677252       23.880492       10.092540
  C           24.024323       24.388856        9.577986
  C           24.985607       23.227470        9.709578
  H           22.194668       22.482083       11.710491
  H           23.066776       23.958296       12.225782
  H           21.952061       24.694546       10.197002
  H           22.265762       23.148644        9.386585
  H           24.358147       25.231919       10.205845
  H           23.961057       24.746190        8.549196
  H           26.032206       23.543695        9.761856
  H           24.855253       22.515119        8.888808
  O            9.167256       28.398577        3.059216
  S            9.341913       27.116675        2.418261
  O            9.312225       26.969757        0.975959
  C           10.832307       26.367801        3.046684
  C           10.405511       24.986665        3.536793
  C            9.017772       25.165374        4.153270
  C            8.208422       25.943700        3.138695
  H           11.590100       26.317588        2.259456
  H           11.197205       26.978246        3.876386
  H           11.119633       24.581090        4.261389
  H           10.346332       24.288924        2.692426
  H            9.107884       25.740574        5.089979
  H            8.550963       24.209391        4.394697
  H            7.363109       26.476607        3.585414
  H            7.851146       25.289993        2.336747
  O           26.401460       13.886992       32.403655
  S           25.841839       14.231729       31.118128
  O           26.676695       14.465228       29.955720
  C           24.593496       13.029062       30.703120
  C           23.343002       13.847212       30.392002
  C           23.343556       15.014936       31.379027
  C           24.732049       15.613460       31.315320
  H           24.920759       12.423784       29.852804
  H           24.432145       12.390107       31.574844
  H           22.435362       13.241289       30.484455
  H           23.390302       14.232254       29.365939
  H           23.140191       14.632996       32.393504
  H           22.574863       15.751765       31.141762
  H           24.997769       16.171972       32.218402
  H           24.842093       16.257111       30.436854
  O           36.127819       22.501400       40.153955
  S           35.804694       21.653496       39.030902
  O           36.375545       20.329045       38.880376
  C           34.030803       21.538463       38.900209
  C           33.712942       21.935958       37.461160
  C           34.689454       23.057347       37.105197
  C           36.058979       22.563951       37.518913
  H           33.700168       20.523133       39.137454
  H           33.590069       22.247824       39.605022
  H           32.671802       22.259235       37.356188
  H           33.871976       21.082483       36.790646
  H           34.424014       23.964171       37.674066
  H           34.654376       23.309198       36.044329
  H           36.770207       23.377113       37.695040
  H           36.466931       21.870277       36.776961
  O           28.032668        3.306049       31.831168
  S           27.204586        4.199787       32.605837
  O           27.384190        4.366701       34.035026
  C           27.220952        5.803589       31.828307
  C           25.750773        6.161564       31.627493
  C           25.043402        4.857664       31.256993
  C           25.489336        3.836419       32.280908
  H           27.745217        6.524685       32.462079
  H           27.732638        5.711536       30.867108
  H           25.627079        6.922701       30.849759
  H           25.328741        6.557592       32.559346
  H           25.359961        4.547065       30.247181
  H           23.958345        4.969896       31.244570
  H           25.393243        2.805678       31.925324
  H           24.939766        3.956253       33.219904
  O           17.908436        5.288527        9.214692
  S           16.982927        6.022715        8.384630
  O           15.656138        5.520121        8.085081
  C           16.844264        7.681617        9.021667
  C           17.139594        8.589388        7.830603
  C           18.242170        7.894746        7.030855
  C           17.789825        6.461201        6.856119
  H           15.844810        7.844521        9.435255
  H           17.596480        7.810720        9.803782
  H           17.446135        9.589197        8.156050
  H           16.243581        8.695980        7.206825
  H           19.183548        7.929307        7.604452
  H           18.420484        8.381817        6.071133
  H           18.619107        5.772066        6.667746
  H           17.050439        6.378006        6.053319
  O           36.487007       11.753118       29.780284
  S           36.996994       10.441753       29.456504
  O           36.929954        9.339130       30.395881
  C           36.287470        9.925487       27.905038
  C           37.480132        9.551965       27.028716
  C           38.581622       10.559531       27.359368
  C           38.673758       10.595252       28.869479
  H           35.604407        9.085946       28.063453
  H           35.743815       10.772718       27.479788
  H           37.218104        9.575146       25.965558
  H           37.823093        8.538603       27.271148
  H           38.294453       11.551539       26.972259
  H           39.534668       10.288545       26.902891
  H           39.111955       11.523979       29.248359
  H           39.239205        9.738144       29.248603
  O           30.862781        4.337692       23.084458
  S           30.714425        5.737996       22.765493
  O           31.245655        6.306528       21.541865
  C           28.991118        6.171123       22.905547
  C           28.959340        7.369707       23.850156
  C           30.031830        7.105275       24.907341
  C           31.280013        6.714986       24.145819
  H           28.579279        6.403645       21.919230
  H           28.459798        5.320669       23.339860
  H           27.969875        7.496540       24.302234
  H           29.201504        8.288263       23.301601
  H           29.706051        6.274237       25.555139
  H           30.202330        7.974730       25.543798
  H           31.981325        6.128675       24.747899
  H           31.786606        7.597981       23.743596
  O           36.600631        6.461620       18.289751
  S           36.060087        7.254651       19.368414
  O           36.306133        6.927044       20.759397
  C           36.493724        8.960821       19.089229
  C           35.171212        9.720624       19.148911
  C           34.130834        8.813758       18.490876
  C           34.304401        7.451322       19.126363
  H           37.205604        9.298115       19.848148
  H           36.942549        9.040646       18.096061
  H           35.242431       10.688027       18.640425
  H           34.890212        9.906423       20.192854
  H           34.331843        8.756727       17.407944
  H           33.116385        9.193529       18.620366
  H           33.926531        6.637091       18.499990
  H           33.826174        7.413314       20.110209
  O           20.138064       14.831133       14.731343
  S           19.066814       14.772112       15.697542
  O           19.105039       13.868600       16.831079
  C           18.741080       16.423685       16.283379
  C           17.244621       16.632841       16.067133
  C           16.904472       15.934048       14.750399
  C           17.518296       14.553738       14.840744
  H           19.029517       16.514765       17.334573
  H           19.322183       17.121946       15.675966
  H           16.989930       17.697586       16.036296
  H           16.677687       16.172399       16.885594
  H           17.353612       16.496074       13.914457
  H           15.828273       15.886986       14.578121
  H           17.701477       14.103222       13.860142
  H           16.895212       13.885788       15.443827
  O           20.677421       14.647461       27.444704
  S           20.244798       15.848501       26.770212
  O           20.517431       16.079693       25.364893
  C           18.500730       16.067030       27.065968
  C           18.367498       17.482093       27.622516
  C           19.587398       17.702591       28.517517
  C           20.786185       17.269325       27.701802
  H           17.940235       15.927388       26.137074
  H           18.184942       15.327689       27.806139
  H           17.431842       17.606996       28.177896
  H           18.375166       18.211463       26.803211
  H           19.494175       17.074879       29.419563
  H           19.674042       18.740210       28.843002
  H           21.647127       16.996674       28.320300
  H           21.075808       18.045844       26.986794
  O           33.162828        2.206612       29.664173
  S           34.394354        2.727450       30.208848
  O           34.885866        2.327773       31.513216
  C           35.688599        2.495176       29.005528
  C           36.308656        3.877401       28.818755
  C           35.151744        4.874535       28.890028
  C           34.362098        4.508497       30.128041
  H           36.410792        1.756976       29.366080
  H           35.231764        2.146094       28.076204
  H           36.845432        3.949657       27.866835
  H           37.022003        4.082603       29.626423
  H           34.522129        4.765079       27.991138
  H           35.502737        5.906838       28.925426
  H           33.324728        4.855716       30.090594
  H           34.847815        4.891772       31.030970
  O           32.269299       16.768404       39.435787
  S           32.713434       16.868174       38.065608
  O           31.784444       17.071531       36.970928
  C           33.995836       18.102740       37.974548
  C           35.171119       17.403902       37.296140
  C           35.174603       15.969402       37.825288
  C           33.752881       15.470223       37.684840
  H           33.643346       18.971941       37.411751
  H           34.256589       18.399595       38.993412
  H           36.116570       17.914419       37.508260
  H           35.027417       17.394960       36.208680
  H           35.472679       15.974779       38.887136
  H           35.880210       15.335912       37.285928
  H           33.521467       14.644427       38.364993
  H           33.542454       15.169748       36.653561
  O            4.016804        1.450369       30.635325
  S            2.893893        1.761246       31.487983
  O            1.660633        0.999994       31.440384
  C            3.466273        1.832749       33.174479
  C            3.005218        3.192698       33.692036
  C            3.158500        4.165860       32.522737
  C            2.505333        3.494740       31.333968
  H            3.048698        1.001593       33.750075
  H            4.557232        1.769825       33.167456
  H            3.592104        3.510039       34.560576
  H            1.951944        3.143389       33.994497
  H            4.231071        4.329868       32.325022
  H            2.708409        5.136386       32.736273
  H            2.876021        3.870424       30.375035
  H            1.416308        3.596939       31.374958
  O           34.017029       23.708810       33.977062
  S           34.467377       24.943244       34.575359
  O           33.782256       25.543634       35.703562
  C           36.199045       24.784150       34.966530
  C           36.867762       25.983031       34.299145
  C           36.138850       26.190549       32.971206
  C           34.661728       26.174154       33.299903
  H           36.341435       24.774691       36.051028
  H           36.561624       23.847835       34.535193
  H           37.938901       25.811101       34.148804
  H           36.752594       26.875880       34.925928
  H           36.385694       25.360718       32.287942
  H           36.433760       27.120711       32.483429
  H           34.036167       25.914116       32.440163
  H           34.340884       27.135598       33.713163
  O            3.933558        8.064426       41.186059
  S            4.154077        8.702710       39.909906
  O            4.614385        7.962297       38.751198
  C            2.685667        9.612555       39.470639
  C            3.170137       11.030735       39.180890
  C            4.279307       11.315465       40.194038
  C            5.208441       10.122120       40.140751
  H            2.200181        9.150564       38.606134
  H            2.008247        9.601574       40.328066
  H            2.353941       11.756544       39.261669
  H            3.576491       11.089612       38.163684
  H            3.837024       11.408523       41.200082
  H            4.804455       12.246288       39.975204
  H            5.796404        9.997970       41.055621
  H            5.877670       10.183996       39.276804
  O           11.236668        3.777384       10.170044
  S           12.379210        3.981803        9.311318
  O           12.710481        5.286826        8.772918
  C           13.819004        3.303111       10.113421
  C           14.429979        2.349399        9.090170
  C           13.253664        1.683360        8.375693
  C           12.321907        2.805560        7.972337
  H           14.504628        4.105772       10.400047
  H           13.489834        2.759408       11.002373
  H           15.080767        1.610925        9.570410
  H           15.031750        2.910384        8.364590
  H           12.744517        0.998997        9.074847
  H           13.576773        1.097323        7.514148
  H           11.290793        2.470633        7.821582
  H           12.682365        3.309917        7.070231
  O           25.233635       22.843969       14.471768
  S           25.146482       21.845255       15.510794
  O           25.419050       22.157988       16.900256
  C           23.556693       21.047330       15.397271
  C           23.867154       19.554902       15.318687
  C           25.132492       19.428904       14.469662
  C           26.117811       20.425852       15.040138
  H           22.943535       21.302782       16.266340
  H           23.067279       21.390493       14.482441
  H           23.032247       18.995048       14.883953
  H           24.056225       19.156012       16.322897
  H           24.894850       19.685016       13.423558
  H           25.532923       18.414188       14.479948
  H           26.884508       20.728005       14.319736
  H           26.594153       20.033566       15.944190
  O           20.863036       23.625175       38.124343
  S           20.713925       23.078830       39.452451
  O           19.906770       23.732160       40.464559
  C           20.200668       21.377815       39.310615
  C           21.210493       20.588807       40.139843
  C           22.563238       21.265986       39.917785
  C           22.328481       22.745574       40.132046
  H           19.176150       21.261273       39.675691
  H           20.255473       21.091608       38.257390
  H           21.233844       19.534447       39.844413
  H           20.944627       20.636992       41.202996
  H           22.897075       21.079739       38.883249
  H           23.330521       20.877451       40.588917
  H           23.073774       23.372566       39.632528
  H           22.297196       22.987554       41.199083
  O           20.440198       19.447459        3.939776
  S           19.666078       19.104347        5.109225
  O           19.728504       19.888130        6.327620
  C           17.960560       18.920067        4.625231
  C           17.552098       17.539130        5.131268
  C           18.770210       16.636787        4.931825
  C           19.946526       17.390433        5.513633
  H           17.356362       19.721520        5.060108
  H           17.908709       18.964577        3.534575
  H           16.676420       17.159264        4.594248
  H           17.300604       17.587918        6.197885
  H           18.923423       16.466797        3.852923
  H           18.640131       15.662887        5.405848
  H           20.906991       17.067772        5.099513
  H           19.966853       17.304616        6.604652
  O           40.111465       22.133724       26.111548
  S           39.752140       21.204071       27.156168
  O           40.053460       21.463199       28.550714
  C           38.018979       20.818571       26.999508
  C           37.955516       19.294496       26.944115
  C           39.174820       18.848155       26.136725
  C           40.358134       19.582296       26.729181
  H           37.462830       21.230809       27.846419
  H           37.655102       21.256192       26.066619
  H           37.021421       18.949392       26.488187
  H           38.012142       18.877969       27.957327
  H           39.037260       19.137503       25.081380
  H           39.313323       17.766540       26.168738
  H           41.195762       19.675356       26.030740
  H           40.697589       19.100087       27.651323
  O           22.713787        1.094786        7.561488
  S           23.521187        2.259098        7.839124
  O           24.918891        2.152628        8.210320
  C           23.369192        3.392627        6.472007
  C           22.951520        4.718936        7.101575
  C           21.996293        4.365144        8.241826
  C           22.684055        3.278249        9.039224
  H           24.319010        3.464528        5.934257
  H           22.590153        3.018190        5.803355
  H           22.476504        5.378209        6.367261
  H           23.829921        5.237853        7.504610
  H           21.050737        3.986227        7.819043
  H           21.759171        5.231571        8.860839
  H           21.984852        2.665824        9.617283
  H           23.443237        3.700622        9.705064
  O           23.944787        8.992908        3.318494
  S           24.930905        8.758520        4.346713
  O           25.361625        9.807891        5.250041
  C           24.426085        7.341543        5.302920
  C           25.627211        6.399907        5.280201
  C           26.234726        6.520825        3.882308
  C           26.371029        8.003994        3.614296
  H           24.153125        7.648464        6.316721
  H           23.565615        6.884803        4.807763
  H           25.331751        5.369290        5.503883
  H           26.364436        6.711446        6.030363
  H           25.550681        6.062955        3.148252
  H           27.194107        6.006982        3.807127
  H           26.408109        8.243036        2.546783
  H           27.253358        8.414019        4.115770
  O           14.140345       18.544843        9.777882
  S           13.447511       18.836074        8.545095
  O           12.016986       18.644349        8.405313
  C           13.862123       20.494611        8.040759
  C           14.364027       20.358550        6.605670
  C           15.155290       19.051208        6.555092
  C           14.272666       18.004941        7.200462
  H           12.984522       21.142923        8.118259
  H           14.655627       20.862169        8.696086
  H           14.981347       21.215225        6.314940
  H           13.515023       20.302201        5.913343
  H           16.088595       19.169135        7.130794
  H           15.427316       18.776637        5.534938
  H           14.836904       17.150670        7.587703
  H           13.504535       17.655270        6.503466
  O           19.568199       25.457071       39.097914
  S           18.746927       26.344904       39.886497
  O           18.261238       25.974927       41.201763
  C           19.563274       27.925766       39.993528
  C           18.525066       28.940528       39.522060
  C           17.758256       28.265611       38.384392
  C           17.368381       26.897026       38.899343
  H           19.894357       28.110605       41.019549
  H           20.424671       27.911126       39.321234
  H           18.997225       29.872399       39.193148
  H           17.834593       29.180799       40.339873
  H           18.420628       28.167738       37.507988
  H           16.886363       28.845328       38.078077
  H           17.179635       26.177025       38.096800
  H           16.493345       26.958613       39.554033
  O            5.175019       14.787062        9.357001
  S            3.837778       14.404368        9.744210
  O            3.375504       14.511833       11.114412
  C            2.678986       15.235137        8.674618
  C            1.798655       14.125315        8.106099
  C            2.721723       12.928831        7.873351
  C            3.508189       12.754148        9.154428
  H            2.106706       15.975473        9.241097
  H            3.242516       15.729160        7.879272
  H            1.305623       14.440546        7.180329
  H            1.019807       13.854360        8.829479
  H            3.403550       13.153686        7.036122
  H            2.165286       12.026801        7.614857
  H            4.452926       12.221698        9.005871
  H            2.910707       12.241694        9.915024
  O           37.858986        7.568169       39.389549
  S           36.488022        7.134364       39.259657
  O           35.397437        7.832251       39.912556
  C           36.110585        6.961727       37.526239
  C           35.565358        5.543671       37.378783
  C           36.382257        4.673525       38.334462
  C           36.383057        5.400317       39.661855
  H           35.387183        7.722953       37.220094
  H           37.038460        7.081310       36.961483
  H           35.643593        5.190569       36.345004
  H           34.507492        5.514826       37.667552
  H           37.412155        4.581030       37.950854
  H           35.970496        3.667380       38.425156
  H           37.226019        5.119935       40.301308
  H           35.442605        5.239092       40.198191
  O           23.584700        1.009146       20.360431
  S           23.361396        1.560601       19.044896
  O           22.383456        0.998803       18.133458
  C           23.064158        3.310520       19.207472
  C           24.065670        3.971821       18.264309
  C           25.347603        3.143810       18.358360
  C           24.923696        1.700077       18.196683
  H           22.027282        3.542721       18.947720
  H           23.261050        3.595166       20.244010
  H           24.240450        5.018229       18.536303
  H           23.686521        3.947994       17.235242
  H           25.806741        3.296702       19.349429
  H           26.080095        3.436475       17.604768
  H           25.640238        0.994111       18.628282
  H           24.753669        1.456545       17.143173
  O           22.279219       38.359827       15.786717
  S           22.792321       39.656727       15.413384
  O           22.722195       40.795969       16.307761
  C           24.473521       39.461065       14.854562
  C           24.511311       40.114646       13.475684
  C           23.173321       39.785072       12.813140
  C           22.108574       40.123293       13.833983
  H           25.163052       39.932348       15.560918
  H           24.686995       38.391714       14.783025
  H           25.356152       39.748610       12.882588
  H           24.614216       41.202062       13.576856
  H           23.142178       38.709005       12.573327
  H           23.030488       40.336496       11.882748
  H           21.170436       39.584854       13.666408
  H           21.917006       41.200684       13.859093
  O           15.315498       29.293226       29.074550
  S           16.297856       28.364337       29.581244
  O           16.065203       27.578405       30.777439
  C           16.782689       27.274517       28.256771
  C           18.305287       27.368274       28.203790
  C           18.651007       28.828047       28.499324
  C           17.865523       29.199457       29.738384
  H           16.431991       26.257990       28.457230
  H           16.338643       27.645585       27.329770
  H           18.691842       27.051491       27.229252
  H           18.749481       26.722039       28.970843
  H           18.337272       29.455046       27.647946
  H           19.722692       28.974123       28.641639
  H           17.699725       30.277409       29.831282
  H           18.355195       28.821604       30.641461
  O           34.429287       41.200019       25.212924
  S           34.408491       39.966957       25.963742
  O           33.167124       39.334444       26.365779
  C           35.420604       38.770139       25.115063
  C           36.410166       38.272255       26.165196
  C           36.771006       39.488570       27.018526
  C           35.456831       40.137073       27.396133
  H           34.797085       37.966686       24.712338
  H           35.942211       39.280125       24.301405
  H           37.296884       37.828159       25.700426
  H           35.938614       37.507585       26.794653
  H           37.380357       40.185135       26.418618
  H           37.352951       39.212681       27.899052
  H           35.561467       41.196422       27.650947
  H           34.979216       39.603235       28.223781
  O           13.103172       22.226283       31.328890
  S           13.669541       23.185727       32.247200
  O           13.073486       24.490805       32.457411
  C           13.897775       22.391491       33.826471
  C           15.363673       22.627521       34.180493
  C           16.139405       22.523533       32.867015
  C           15.400886       23.397773       31.876816
  H           13.213953       22.818515       34.565754
  H           13.695079       21.324634       33.704279
  H           15.719270       21.899814       34.917712
  H           15.491839       23.630647       34.605478
  H           16.135796       21.474937       32.525206
  H           17.179688       22.831791       32.980549
  H           15.590755       23.117710       30.835848
  H           15.646570       24.453915       32.026159
  O           30.383023       20.129089       28.860104
  S           29.878336       19.203891       29.846967
  O           29.885171       19.513943       31.263485
  C           28.233965       18.708442       29.369920
  C           28.268043       17.182476       29.356927
  C           29.645110       16.793428       28.818291
  C           30.646170       17.613049       29.603338
  H           27.500256       19.105373       30.077462
  H           28.036292       19.100629       28.369263
  H           27.462386       16.769658       28.740487
  H           28.147988       16.794244       30.375830
  H           29.701322       17.048766       27.746824
  H           29.834979       15.723494       28.914681
  H           31.598011       17.741203       29.078290
  H           30.824540       17.174609       30.590280
  O            4.663496        5.495119       36.662570
  S            4.104052        4.992750       37.895148
  O            3.047237        5.692694       38.599364
  C            3.609942        3.298753       37.643693
  C            4.298726        2.515532       38.758162
  C            5.673804        3.158519       38.941271
  C            5.427117        4.648353       39.039957
  H            2.520118        3.213867       37.683415
  H            3.972824        2.979414       36.663621
  H            4.380591        1.452369       38.508197
  H            3.725040        2.601515       39.689178
  H            6.299683        2.934088       38.061324
  H            6.190685        2.775498       39.822309
  H            6.306041        5.244796       38.775668
  H            5.081213        4.923449       40.041343
  O           32.365388       38.457075       20.428153
  S           31.456235       39.044682       21.383538
  O           31.911923       39.953414       22.417585
  C           30.113443       39.806580       20.492798
  C           28.846344       39.210292       21.100089
  C           29.168051       37.745895       21.399832
  C           30.487937       37.752531       22.140140
  H           30.158329       40.894171       20.600642
  H           30.204454       39.532843       19.438765
  H           27.993722       39.304813       20.419206
  H           28.594622       39.730378       22.032530
  H           29.267462       37.194189       20.450023
  H           28.380853       37.264784       21.982028
  H           31.023566       36.800853       22.065909
  H           30.346063       38.015693       23.193096
  O           19.042317       36.534932       11.520647
  S           20.213233       37.211296       12.026698
  O           20.423566       38.632394       11.829364
  C           20.378372       36.836215       13.761358
  C           21.799613       36.301841       13.917621
  C           22.080656       35.471163       12.665109
  C           21.671253       36.335002       11.491921
  H           20.199902       37.734101       14.360064
  H           19.644641       36.067288       14.015504
  H           21.904329       35.704594       14.829668
  H           22.511178       37.134755       13.974464
  H           21.469512       34.553498       12.693313
  H           23.127333       35.170706       12.599596
  H           21.441398       35.753457       10.593549
  H           22.441776       37.078271       11.264004
  O           16.011022       40.205043       29.811078
  S           15.136055       39.896487       30.917345
  O           15.085070       40.721929       32.108456
  C           13.481915       39.683287       30.288561
  C           13.035294       38.317520       30.803451
  C           14.270210       37.417816       30.745871
  C           15.386095       38.199508       31.404626
  H           12.837604       40.494708       30.639216
  H           13.528433       39.690078       29.196778
  H           12.213210       37.913110       30.203343
  H           12.688447       38.400929       31.840774
  H           14.520796       37.212139       29.691687
  H           14.102011       36.459777       31.239805
  H           16.381336       37.869902       31.090056
  H           15.308323       38.151218       32.495369
  O           24.913793        2.682328       21.599599
  S           24.868577        3.597047       22.715773
  O           25.868222        3.575810       23.765991
  C           24.728712        5.257123       22.082066
  C           23.510276        5.848578       22.785981
  C           22.492823        4.712885       22.899076
  C           23.250250        3.529612       23.461543
  H           25.645038        5.817894       22.287935
  H           24.562855        5.197757       21.003564
  H           23.103174        6.701249       22.232159
  H           23.786634        6.196681       23.788852
  H           22.103370        4.472988       21.895495
  H           21.643949        4.984976       23.527947
  H           22.777788        2.570341       23.227709
  H           23.378299        3.624347       24.544469
  O           25.718998        9.882813       34.254738
  S           26.034363       10.936990       35.189541
  O           27.377019       11.468388       35.322174
  C           24.900355       12.286425       34.924867
  C           24.288894       12.564736       36.295472
  C           24.111022       11.201862       36.965351
  C           25.433573       10.483737       36.806115
  H           25.432191       13.152056       34.519486
  H           24.135008       11.955364       34.218579
  H           23.336556       13.098440       36.207662
  H           24.969867       13.182898       36.893345
  H           23.311266       10.645022       36.448904
  H           23.825968       11.295420       38.014204
  H           25.338518        9.395209       36.870704
  H           26.162443       10.835512       37.543069
  O           22.976413       15.416439       27.558906
  S           23.990946       14.913494       26.663155
  O           24.068039       13.511447       26.301187
  C           23.970727       15.895867       25.176032
  C           25.409794       16.371881       24.996039
  C           25.939568       16.661888       26.400687
  C           25.592980       15.448057       27.235367
  H           23.619132       15.295378       24.332057
  H           23.299011       16.742904       25.335795
  H           25.460621       17.258259       24.354751
  H           26.012485       15.582127       24.530901
  H           25.434146       17.556299       26.801907
  H           27.012502       16.859149       26.400815
  H           25.546200       15.666322       28.306942
  H           26.300380       14.632536       27.054785
  O           17.781592       23.621431       30.961118
  S           18.948135       22.798586       31.177229
  O           19.197263       22.138425       32.444045
  C           19.041534       21.593453       29.867292
  C           20.443825       21.749212       29.284868
  C           20.751655       23.246597       29.314568
  C           20.404697       23.715501       30.710974
  H           18.861506       20.590190       30.264221
  H           18.282010       21.840654       29.121494
  H           20.501854       21.345525       28.268419
  H           21.171306       21.211300       29.905129
  H           20.119509       23.762056       28.572212
  H           21.793039       23.455379       29.065513
  H           20.194769       24.788600       30.760875
  H           21.199450       23.461001       31.419280
  O           39.474637       13.172015       33.555965
  S           39.292429       12.275333       32.439111
  O           39.305638       12.745776       31.067540
  C           40.447521       10.927514       32.600813
  C           39.595793        9.663598       32.517296
  C           38.292446        9.981041       33.250997
  C           37.817277       11.308251       32.700606
  H           41.200307       10.978841       31.808868
  H           40.929489       11.006674       33.578382
  H           40.109978        8.804715       32.961630
  H           39.379299        9.423744       31.469012
  H           38.495937       10.068265       34.331452
  H           37.545622        9.197314       33.116361
  H           37.146998       11.838409       33.384533
  H           37.327869       11.178169       31.730215
  O            9.290555       35.666943        2.610711
  S            9.992374       34.556298        3.209475
  O            9.528792       33.923624        4.429112
  C           10.238577       33.304666        1.964564
  C           11.737604       33.017445        1.982524
  C           12.424340       34.361977        2.224243
  C           11.711679       34.987571        3.403626
  H            9.639298       32.419364        2.196090
  H            9.934352       33.718405        0.999957
  H           12.068162       32.558468        1.044670
  H           11.979357       32.328049        2.800808
  H           12.307124       34.995686        1.329215
  H           13.492865       34.247863        2.412210
  H           11.815704       36.076706        3.436252
  H           12.059243       34.554630        4.346951
  O           16.856829        9.312917       15.773776
  S           17.951091       10.254624       15.793251
  O           18.290738       11.060044       14.636256
  C           17.753138       11.323537       17.205780
  C           19.078331       11.235442       17.958113
  C           19.538926        9.782482       17.837453
  C           19.422456        9.429099       16.370566
  H           17.523500       12.341847       16.878961
  H           16.934091       10.934638       17.815797
  H           18.964822       11.537047       19.004846
  H           19.820045       11.896708       17.493477
  H           18.873416        9.139559       18.437574
  H           20.555947        9.643499       18.206848
  H           19.331435        8.352203       16.197041
  H           20.270736        9.824565       15.803003
  O           17.501745       34.922154       34.008735
  S           18.305246       36.081137       33.699309
  O           18.016887       37.386621       34.260791
  C           20.015273       35.682925       34.006286
  C           20.741073       36.025345       32.707878
  C           19.791899       35.633242       31.575127
  C           18.449764       36.236393       31.928798
  H           20.388914       36.256725       34.859307
  H           20.083663       34.613113       34.218479
  H           21.697857       35.497607       32.633345
  H           20.943761       37.102443       32.662308
  H           19.714875       34.533954       31.530054
  H           20.147673       35.980884       30.604214
  H           17.611406       35.724746       31.445608
  H           18.422170       37.303021       31.684581
  O           23.072008        3.871327        1.759228
  S           22.947279        4.848634        2.814649
  O           23.865454        4.887823        3.936308
  C           22.862234        6.469566        2.078207
  C           21.597062        7.100376        2.653809
  C           20.569208        5.972974        2.755204
  C           21.277424        4.824015        3.439691
  H           23.762953        7.041305        2.319704
  H           22.777279        6.348347        0.995485
  H           21.236142        7.919803        2.023114
  H           21.799085        7.505521        3.652980
  H           20.254917        5.675808        1.740654
  H           19.676822        6.280667        3.302080
  H           20.819730        3.852861        3.226437
  H           21.324496        4.980795        4.521959
  O            5.361263       32.129424       16.986139
  S            4.846786       33.109492       17.913167
  O            3.464792       33.547184       17.878247
  C            5.247835       32.587407       19.569545
  C            5.964958       33.779350       20.197960
  C            6.819915       34.393053       19.088808
  C            5.904696       34.544806       17.893173
  H            4.336892       32.313806       20.109753
  H            5.914803       31.724307       19.503136
  H            6.574738       33.473031       21.054603
  H            5.232996       34.516874       20.549512
  H            7.649454       33.707218       18.848193
  H            7.254982       35.347633       19.388129
  H            6.447101       34.588068       16.943423
  H            5.268109       35.429285       17.995912
  O           39.270385       24.354941       20.234095
  S           37.889519       23.990291       20.445851
  O           37.402532       22.648569       20.190261
  C           37.423849       24.471131       22.097802
  C           36.170880       25.325285       21.923474
  C           36.387526       26.141063       20.648574
  C           36.840494       25.154129       19.594542
  H           37.244434       23.584210       22.712360
  H           38.239166       25.060817       22.524100
  H           36.003033       25.971067       22.791975
  H           35.290184       24.682309       21.804073
  H           37.173753       26.893404       20.828099
  H           35.484330       26.671488       20.343637
  H           37.400088       25.625911       18.780677
  H           35.990430       24.599049       19.185424
  O           11.333282       17.864194       38.740476
  S           11.939944       17.165694       39.848924
  O           11.894605       17.686810       41.201360
  C           11.343342       15.486100       39.854554
  C           12.599753       14.619400       39.867358
  C           13.617998       15.335176       38.979304
  C           13.631337       16.776794       39.439477
  H           10.706967       15.314796       40.727584
  H           10.769961       15.324646       38.938384
  H           12.390817       13.606785       39.506170
  H           12.992706       14.540578       40.888472
  H           13.289297       15.274440       37.928273
  H           14.607955       14.881408       39.043965
  H           13.990927       17.467042       38.669832
  H           14.229386       16.893026       40.348833
  O           14.394113        9.841037        2.807039
  S           14.828225        8.600426        3.404560
  O           13.994580        7.863978        4.334819
  C           15.357963        7.501109        2.105376
  C           16.768210        7.071147        2.500644
  C           17.427345        8.301209        3.125375
  C           16.436896        8.835861        4.136986
  H           14.669409        6.655179        2.022934
  H           15.371959        8.062558        1.167944
  H           17.332455        6.706699        1.635598
  H           16.722122        6.262398        3.240306
  H           17.611689        9.052866        2.339608
  H           18.386421        8.061692        3.586791
  H           16.586649        9.896706        4.361223
  H           16.469440        8.254022        5.063541
  O           12.422425       20.032262       13.476015
  S           13.229844       19.531558       12.388831
  O           12.768581       18.468583       11.517040
  C           13.755613       20.912129       11.391538
  C           15.274325       20.784408       11.307274
  C           15.734633       20.283919       12.676736
  C           14.846152       19.104902       13.009487
  H           13.276376       20.871910       10.409085
  H           13.471716       21.833001       11.906899
  H           15.742361       21.740275       11.048895
  H           15.548780       20.053502       10.536720
  H           15.597257       21.085806       13.421387
  H           16.789925       20.007412       12.677943
  H           14.786115       18.905776       14.084123
  H           15.177295       18.203367       12.484436
  O           29.373347       16.590807       34.082362
  S           28.504962       17.743761       34.117070
  O           28.901960       19.020343       33.555439
  C           26.921693       17.280642       33.441957
  C           25.904362       17.680824       34.507224
  C           26.562530       17.384334       35.855077
  C           27.942609       18.001807       35.789455
  H           26.753948       17.791243       32.489251
  H           26.918966       16.198471       33.289969
  H           24.963880       17.132346       34.388202
  H           25.683208       18.752698       34.433222
  H           26.640390       16.292333       35.988762
  H           25.982261       17.780128       36.689784
  H           28.648728       17.543677       36.489179
  H           27.898150       19.081613       35.963075
  O           37.060971       26.171245       39.777718
  S           36.139927       27.282500       39.740417
  O           35.819273       28.053241       40.926098
  C           36.648515       28.396207       38.445043
  C           35.409084       28.583147       37.573972
  C           34.711134       27.223409       37.531807
  C           34.620796       26.756899       38.968612
  H           37.004721       29.336954       38.874709
  H           37.451669       27.917505       37.879369
  H           35.674541       28.931632       36.570184
  H           34.740296       29.326575       38.024903
  H           35.321709       26.520003       36.941200
  H           33.727490       27.282588       37.063788
  H           34.519562       25.670767       39.058996
  H           33.794275       27.249847       39.490116
  O           21.136007       20.558236       13.630660
  S           20.849051       19.229042       14.115941
  O           20.930106       18.892348       15.524049
  C           19.256047       18.729868       13.491310
  C           19.501551       17.387566       12.807311
  C           20.869927       17.498379       12.134207
  C           21.808483       18.047721       13.186602
  H           18.535411       18.657094       14.310997
  H           18.923204       19.478616       12.768267
  H           18.713029       17.157716       12.082810
  H           19.521845       16.583013       13.552686
  H           20.800820       18.197470       11.283974
  H           21.214592       16.538441       11.747133
  H           22.686225       18.542566       12.759054
  H           22.127595       17.260759       13.877223
  O           17.346275       16.674645       37.672387
  S           18.318368       17.603769       38.198090
  O           18.409884       17.898446       39.614950
  C           19.930367       17.136716       37.597823
  C           20.493906       18.399737       36.951989
  C           19.313219       19.089431       36.267811
  C           18.205831       19.139021       37.298069
  H           20.550309       16.775697       38.423557
  H           19.801789       16.345450       36.855148
  H           21.291036       18.162973       36.239229
  H           20.912056       19.061461       37.720476
  H           18.996821       18.489821       35.397891
  H           19.574048       20.085358       35.906980
  H           17.210919       19.230580       36.851003
  H           18.367883       19.954896       38.009537
  O            1.071417       10.648677       22.463177
  S            1.602062       10.864183       23.788535
  O            1.000002       11.806096       24.712129
  C            1.765862        9.283986       24.596711
  C            3.216794        9.228231       25.067442
  C            4.044220        9.902488       23.972662
  C            3.347129       11.211210       23.670155
  H            1.053683        9.207524       25.423425
  H            1.566642        8.501763       23.860071
  H            3.541589        8.196796       25.241077
  H            3.329355        9.781766       26.007777
  H            4.052727        9.260000       23.076259
  H            5.079589       10.057819       24.279230
  H            3.578016       11.596885       22.672135
  H            3.588202       11.967664       24.423654
  O           32.789268       14.875932       11.944254
  S           32.570285       16.037383       12.773517
  O           32.718265       15.989556       14.215223
  C           33.550101       17.382231       12.134500
  C           32.564157       18.529929       11.932996
  C           31.265557       17.891835       11.438755
  C           30.980321       16.743535       12.382283
  H           34.348900       17.634404       12.837941
  H           33.979837       17.067862       11.180195
  H           32.948514       19.266819       11.219720
  H           32.383194       19.042816       12.885624
  H           31.414071       17.513699       10.413398
  H           30.442216       18.607041       11.412497
  H           30.336979       15.976864       11.939082
  H           30.536891       17.103603       13.315997
  O            0.999667       28.554516       20.039142
  S            1.785749       28.914832       21.195364
  O            1.235636       29.701599       22.282136
  C            2.519513       27.434802       21.864769
  C            4.013291       27.736853       21.950163
  C            4.349133       28.569807       20.712747
  C            3.309170       29.667682       20.654897
  H            2.081845       27.204893       22.840519
  H            2.328755       26.614436       21.168486
  H            4.605790       26.816603       21.989972
  H            4.229016       28.318152       22.855068
  H            4.279150       27.931964       19.815719
  H            5.361482       28.974217       20.753997
  H            3.178798       30.079325       19.649088
  H            3.549564       30.473369       21.355740
  O           33.290747       22.656046        9.582602
  S           33.769105       23.788624        8.825607
  O           33.923291       23.738328        7.384636
  C           32.785724       25.212139        9.254054
  C           33.794475       26.281217        9.665627
  C           34.906487       25.548501       10.416863
  C           35.292148       24.372199        9.546357
  H           32.174403       25.519023        8.400468
  H           32.142211       24.941709       10.094862
  H           33.328187       27.052866       10.287426
  H           34.210748       26.769002        8.775637
  H           34.517168       25.193227       11.385683
  H           35.759556       26.197412       10.620055
  H           35.766131       23.562001       10.109402
  H           35.948277       24.687318        8.728864
  O           11.606223       24.284947       37.648700
  S           11.344066       23.024388       38.302051
  O           12.307206       22.407371       39.193315
  C            9.771624       23.134160       39.134141
  C            8.969062       21.940324       38.623700
  C            9.330447       21.786742       37.145994
  C           10.841856       21.826273       37.080574
  H            9.915982       23.109637       40.218142
  H            9.296432       24.074160       38.842950
  H            7.893397       22.092855       38.762188
  H            9.255590       21.032759       39.169162
  H            8.902972       22.630038       36.578088
  H            8.931774       20.864566       36.720845
  H           11.218708       22.124355       36.097096
  H           11.272401       20.860756       37.364310
  O           29.710010        3.482117       17.455457
  S           29.316849        4.356004       16.375482
  O           29.129128        3.867657       15.023085
  C           27.860249        5.253608       16.875107
  C           28.207572        6.724196       16.659152
  C           29.678879        6.874059       17.047219
  C           30.413731        5.761224       16.331825
  H           26.998605        4.934800       16.281448
  H           27.679617        5.048963       17.933262
  H           27.564129        7.379009       17.256397
  H           28.076119        6.991269       15.603363
  H           29.780230        6.756284       18.139124
  H           30.074387        7.855377       16.781344
  H           31.363392        5.500837       16.809782
  H           30.586306        6.016595       15.281537
  O           13.289733       19.189428       32.773782
  S           14.172230       19.187702       33.916497
  O           15.401771       19.956136       33.937377
  C           13.217880       19.581325       35.369520
  C           13.508375       18.450448       36.352693
  C           13.608559       17.175271       35.515026
  C           14.540253       17.502416       34.368238
  H           13.510266       20.560807       35.758909
  H           12.161171       19.591577       35.091200
  H           12.725664       18.372060       37.114742
  H           14.462000       18.631213       36.863793
  H           12.608544       16.914219       35.130030
  H           13.970114       16.328530       36.100183
  H           14.395516       16.849866       33.501445
  H           15.586064       17.464328       34.689061
  O           31.040995       29.850217       34.196594
  S           32.089072       30.699672       33.682239
  O           31.824029       31.740992       32.708532
  C           32.973051       31.405460       35.059716
  C           34.439581       31.067982       34.804180
  C           34.452508       29.664538       34.197569
  C           33.426227       29.682003       33.085525
  H           32.793624       32.483286       35.110674
  H           32.618205       30.925226       35.974954
  H           35.027277       31.113919       35.727221
  H           34.871685       31.781220       34.091526
  H           34.163749       28.932340       34.970165
  H           35.441377       29.386524       33.830216
  H           33.047288       28.685157       32.838941
  H           33.830340       30.156804       32.185883
  O           36.662429       15.489707       20.279494
  S           35.675928       15.154103       21.278886
  O           36.017465       15.030277       22.682709
  C           34.299077       16.273943       21.113845
  C           33.071575       15.376111       20.983318
  C           33.512111       14.174054       20.147383
  C           34.802840       13.685521       20.768312
  H           34.244298       16.935119       21.983526
  H           34.446316       16.864206       20.206039
  H           32.235287       15.907362       20.516525
  H           32.746293       15.036225       21.974261
  H           33.689081       14.499466       19.108543
  H           32.752992       13.390899       20.124868
  H           35.422536       13.113852       20.070264
  H           34.605930       13.086952       21.663321
  O           18.109209       23.576290       35.751497
  S           19.102990       24.332902       35.027247
  O           20.365705       23.748042       34.619584
  C           18.323943       25.077720       33.607623
  C           18.655777       26.564231       33.707978
  C           18.604497       26.910854       35.196273
  C           19.429127       25.854064       35.898683
  H           18.704195       24.624478       32.687579
  H           17.246165       24.914694       33.685188
  H           17.952362       27.171105       33.127967
  H           19.664743       26.752028       33.320652
  H           17.558291       26.869537       35.542892
  H           18.980575       27.915275       35.395783
  H           19.163244       25.737026       36.954007
  H           20.499021       26.066863       35.808448
  O           16.984918       12.366211       19.484873
  S           16.411809       11.771029       20.668893
  O           16.403999       12.457990       21.945891
  C           14.754730       11.236011       20.288309
  C           14.710115        9.765316       20.694467
  C           16.076557        9.183253       20.331370
  C           17.101435       10.142479       20.896800
  H           14.027384       11.843914       20.834131
  H           14.599316       11.346221       19.212251
  H           13.897723        9.234610       20.186658
  H           14.548110        9.677835       21.775855
  H           16.169086        9.131437       19.233575
  H           16.208706        8.173810       20.723368
  H           18.069774       10.079525       20.390386
  H           17.235481        9.984920       21.971652
  O            7.765752       37.373722       27.909276
  S            6.358588       37.487016       28.212018
  O            5.660164       38.756255       28.149275
  C            5.471166       36.288169       27.236185
  C            4.641683       35.494370       28.242038
  C            5.513991       35.347263       29.489130
  C            6.038957       36.733058       29.796026
  H            4.852684       36.793547       26.488807
  H            6.201444       35.643506       26.740904
  H            4.348179       34.519727       27.837777
  H            3.727574       36.045512       28.494916
  H            6.350926       34.663767       29.268287
  H            4.958437       34.930375       30.330357
  H            6.959184       36.719180       30.388555
  H            5.280591       37.336238       30.305099
  O           23.443641       28.099213        4.747488
  S           24.814225       28.366085        5.114746
  O           25.839901       28.616613        4.120802
  C           24.832761       29.686117        6.312315
  C           25.631185       29.139072        7.492637
  C           25.254711       27.661921        7.611348
  C           25.383620       27.085977        6.217838
  H           25.286088       30.582288        5.878873
  H           23.801016       29.895320        6.605466
  H           25.408933       29.687347        8.414320
  H           26.706302       29.230381        7.294938
  H           24.212203       27.579929        7.961855
  H           25.887522       27.134459        8.326495
  H           24.783490       26.182196        6.072496
  H           26.430289       26.877781        5.974449
  O           21.308406       38.797054        9.445213
  S           20.135294       38.964292        8.620324
  O           20.221679       39.425337        7.248218
  C           19.191055       37.453217        8.665771
  C           17.783913       37.877554        9.077826
  C           17.961741       38.998191       10.102693
  C           18.947344       39.969841        9.490579
  H           19.212118       36.965697        7.686802
  H           19.634257       36.796477        9.418409
  H           17.218228       37.036848        9.493413
  H           17.235114       38.258043        8.207569
  H           18.372995       38.575870       11.034849
  H           17.015597       39.483015       10.347348
  H           19.461927       40.582813       10.237286
  H           18.456588       40.616345        8.756215
  O            7.519099       14.718542       19.456522
  S            6.294271       14.849629       18.703386
  O            6.057112       14.096246       17.487298
  C            4.919434       14.608831       19.811915
  C            4.038585       15.841217       19.624217
  C            4.993340       17.019103       19.427168
  C            5.990100       16.576290       18.378080
  H            4.397020       13.679130       19.568526
  H            5.308057       14.561459       20.832174
  H            3.378961       15.996182       20.484672
  H            3.410469       15.723142       18.732685
  H            5.510555       17.230301       20.378107
  H            4.467380       17.926509       19.127035
  H            6.932914       17.130408       18.424491
  H            5.563667       16.655851       17.373130
  O            4.493483       40.536396       15.195186
  S            4.899093       39.766592       14.043022
  O            5.061833       40.371139       12.735071
  C            6.382788       38.869077       14.455473
  C            6.071422       37.413059       14.119373
  C            4.608061       37.192499       14.503724
  C            3.838340       38.341504       13.889301
  H            7.230492       39.259047       13.884666
  H            6.567762       38.989181       15.525782
  H            6.736916       36.727784       14.655111
  H            6.200044       37.238803       13.044016
  H            4.513698       37.215806       15.602338
  H            4.235495       36.226771       14.159247
  H            2.886707       38.535853       14.394002
  H            3.662796       38.170424       12.822523
  O           23.138768       10.959677       30.516477
  S           22.234319       10.016372       29.902678
  O           22.676824        9.075806       28.891627
  C           21.385306        9.125009       31.191727
  C           19.901072        9.289059       30.875442
  C           19.735547       10.712809       30.343147
  C           20.806427       10.890348       29.288683
  H           21.699746        8.077340       31.195923
  H           21.631969        9.591641       32.148603
  H           19.281656        9.115197       31.761780
  H           19.598468        8.570046       30.104240
  H           19.890911       11.428982       31.167380
  H           18.737361       10.884839       29.938017
  H           21.064676       11.939798       29.115298
  H           20.509532       10.421959       28.344985
  O            5.424537       22.283091        9.474321
  S            5.585889       23.173173       10.599629
  O            4.743674       23.082290       11.776539
  C            7.294640       23.141952       11.105784
  C            7.732114       24.604294       11.114322
  C            7.034897       25.262678        9.923432
  C            5.579532       24.858588       10.017360
  H            7.388413       22.670577       12.088388
  H            7.859821       22.572237       10.364032
  H            8.821282       24.696342       11.045480
  H            7.409217       25.088737       12.044028
  H            7.476109       24.880532        8.987645
  H            7.154050       26.347060        9.927684
  H            5.058685       24.913133        9.056193
  H            5.050802       25.465334       10.759252
  O           14.982507       23.857798       26.501128
  S           16.188979       23.580463       27.244170
  O           16.191789       23.473404       28.690278
  C           16.957860       22.128117       26.553871
  C           18.391686       22.548939       26.242500
  C           18.311627       23.992508       25.745007
  C           17.457153       24.732915       26.750926
  H           16.909440       21.300442       27.267390
  H           16.424077       21.862052       25.638183
  H           18.848906       21.889994       25.496685
  H           19.002880       22.506339       27.152405
  H           17.830739       24.008427       24.752589
  H           19.298766       24.445449       25.642538
  H           16.993717       25.633644       26.336181
  H           18.036542       24.992401       27.642596
  O           27.875892       10.367088       24.367067
  S           27.734160       11.441190       25.321435
  O           26.877985       11.324699       26.485949
  C           29.359669       11.950968       25.845692
  C           29.399620       13.457564       25.603882
  C           28.625152       13.699959       24.308026
  C           27.322502       12.943590       24.453661
  H           29.515935       11.690761       26.896583
  H           30.095821       11.438224       25.221693
  H           30.429245       13.824114       25.533070
  H           28.908286       13.985024       26.430730
  H           29.204195       13.300184       23.458739
  H           28.457099       14.762065       24.124210
  H           26.862067       12.697640       23.491575
  H           26.611818       13.501241       25.071765
  O           18.721243       28.993065        1.089238
  S           18.648923       30.205007        1.870625
  O           17.632579       31.211583        1.632825
  C           18.636255       29.765164        3.597871
  C           19.772800       30.571732        4.220458
  C           20.896067       30.592391        3.183325
  C           20.248303       30.993461        1.875753
  H           17.663863       30.000761        4.039966
  H           18.831955       28.693053        3.678357
  H           20.105024       30.130486        5.166201
  H           19.439990       31.597092        4.423371
  H           21.330547       29.582232        3.098446
  H           21.698734       31.276258        3.462881
  H           20.819756       30.670577        0.999804
  H           20.086565       32.075194        1.833399
  O            2.598009       19.031232        9.149696
  S            3.205116       19.388561       10.409988
  O            2.914029       20.644993       11.072820
  C            2.947843       18.052494       11.561394
  C            4.339382       17.707467       12.085299
  C            5.289634       17.858704       10.897045
  C            4.973924       19.203928       10.279873
  H            2.266199       18.366387       12.357216
  H            2.518882       17.208977       11.014884
  H            4.370635       16.694462       12.500442
  H            4.627580       18.407885       12.878808
  H            5.094333       17.051851       10.170928
  H            6.335821       17.787972       11.198028
  H            5.274059       19.272454        9.229481
  H            5.436429       20.015682       10.850175
  O            4.337317       33.942157        4.949640
  S            3.145213       33.317601        5.472535
  O            2.407710       32.321586        4.719711
  C            3.510157       32.667604        7.091584
  C            2.441809       33.260365        8.006553
  C            2.204200       34.687606        7.512260
  C            2.012103       34.583189        6.014797
  H            3.486646       31.574166        7.073146
  H            4.505179       33.013809        7.381881
  H            2.758972       33.244011        9.054713
  H            1.512840       32.682786        7.924589
  H            3.090623       35.303060        7.740016
  H            1.344672       35.151324        7.998344
  H            2.228791       35.519293        5.490530
  H            0.998497       34.249304        5.771435
  O           28.239523       29.118475       10.970294
  S           28.783253       28.526275       12.169568
  O           28.164272       28.715441       13.467172
  C           29.012893       26.781670       11.885631
  C           30.472064       26.510861       12.242541
  C           31.259050       27.732154       11.766204
  C           30.513553       28.939309       12.292711
  H           28.316714       26.204516       12.501039
  H           28.828686       26.581106       10.827311
  H           30.834151       25.589654       11.773744
  H           30.580573       26.403549       13.328824
  H           31.275211       27.746258       10.663507
  H           32.293255       27.713335       12.112853
  H           30.715663       29.849274       11.718937
  H           30.740719       29.110673       13.349655
  O           14.598096       25.915571       27.291392
  S           13.178125       26.088386       27.487395
  O           12.359356       26.832803       26.550292
  C           12.444042       24.486004       27.752900
  C           11.667423       24.617706       29.060347
  C           12.511901       25.513568       29.967038
  C           12.887160       26.717454       29.130354
  H           11.801332       24.220952       26.908405
  H           13.249363       23.754002       27.852050
  H           11.484500       23.639272       29.517192
  H           10.695882       25.092229       28.875320
  H           13.418856       24.966739       30.274949
  H           11.975290       25.802066       30.871979
  H           13.785871       27.225988       29.493413
  H           12.057604       27.429202       29.072465
  O           11.871979        3.743004       38.773151
  S           12.759803        4.212852       39.810268
  O           12.350706        4.275579       41.200018
  C           14.291472        3.308316       39.697111
  C           15.377844        4.377416       39.615133
  C           14.797599        5.507536       38.764285
  C           13.426466        5.797118       39.335545
  H           14.409698        2.656377       40.567455
  H           14.267122        2.709086       38.783585
  H           16.300216        3.977841       39.180309
  H           15.611796        4.754537       40.618301
  H           14.709936        5.166822       37.718995
  H           15.433752        6.393736       38.772026
  H           12.756491        6.276453       38.614802
  H           13.499179        6.411940       40.238211
  O           18.486355       18.832907       10.645931
  S           19.298455       19.510125        9.662839
  O           20.071074       18.783594        8.673944
  C           18.289592       20.723123        8.833483
  C           19.057925       22.035320        8.966538
  C           19.690748       22.017182       10.358301
  C           20.370019       20.671229       10.489451
  H           18.132212       20.433374        7.790517
  H           17.329783       20.781168        9.352710
  H           18.398777       22.899927        8.834336
  H           19.845248       22.089843        8.204665
  H           18.898485       22.119100       11.118783
  H           20.393462       22.839651       10.499147
  H           20.510918       20.364048       11.530550
  H           21.332765       20.665039        9.968702
  O           25.364588       17.856543        8.403929
  S           23.996102       17.926947        8.858780
  O           23.345193       19.191895        9.139714
  C           22.977722       16.987397        7.737554
  C           22.212111       16.008261        8.623575
  C           23.187187       15.575639        9.718958
  C           23.791711       16.850691       10.265761
  H           22.314484       17.655474        7.180519
  H           23.634362       16.453301        7.046348
  H           21.845244       15.151332        8.048613
  H           21.346944       16.507580        9.076859
  H           23.973261       14.941619        9.275668
  H           22.694066       14.995151       10.499961
  H           24.760500       16.690398       10.749347
  H           23.106740       17.341820       10.964122
  O           10.260060        7.072474        9.847574
  S           11.456861        7.840108       10.098582
  O           12.775202        7.236893       10.070127
  C           11.448955        9.266765        9.030130
  C           11.642560       10.460423        9.961580
  C           10.858972       10.137082       11.234074
  C           11.267220        8.734526       11.629514
  H           12.244645        9.183737        8.284151
  H           10.476700        9.315776        8.533625
  H           11.294175       11.389757        9.498476
  H           12.705588       10.580497       10.204175
  H            9.778810       10.170975       11.013844
  H           11.057729       10.855331       12.030763
  H           10.522895        8.234479       12.257234
  H           12.237244        8.736336       12.136615
  O           34.751798       21.397298       13.978642
  S           33.808684       22.267832       14.639935
  O           33.595708       22.220431       16.073495
  C           34.157698       23.948845       14.160996
  C           32.831515       24.495667       13.639340
  C           32.161633       23.342259       12.891871
  C           32.229529       22.149078       13.820262
  H           34.536424       24.514160       15.017434
  H           34.908210       23.928535       13.366944
  H           32.984833       25.363124       12.988561
  H           32.197254       24.808929       14.477718
  H           32.722783       23.135548       11.965167
  H           31.134003       23.578064       12.611741
  H           32.160963       21.192918       13.291909
  H           31.450933       22.204026       14.587639
  O           22.548335       38.577682        2.543609
  S           21.775949       37.396084        2.240545
  O           20.802796       37.370490        1.165827
  C           22.895451       36.023434        2.041688
  C           22.377367       34.948520        2.993554
  C           21.882219       35.686480        4.237757
  C           20.998829       36.806963        3.733434
  H           22.904026       35.691640        0.999412
  H           23.894995       36.353023        2.335770
  H           23.158978       34.221927        3.239823
  H           21.543754       34.405792        2.531129
  H           22.747181       36.100075        4.782900
  H           21.345863       35.025030        4.919598
  H           20.904633       37.630644        4.448120
  H           20.005091       36.433563        3.466682
  O            9.573153       21.893439       27.589478
  S           10.498694       21.071499       28.332707
  O           10.675388       21.217631       29.764532
  C           10.160836       19.361138       27.961876
  C           11.499436       18.781198       27.512746
  C           12.188733       19.881200       26.704869
  C           12.098143       21.135339       27.546967
  H            9.760220       18.855654       28.845331
  H            9.430652       19.325950       27.149599
  H           11.362072       17.870863       26.919517
  H           12.112100       18.527048       28.386445
  H           11.651323       20.023057       25.752258
  H           13.222967       19.627823       26.467678
  H           12.180651       22.052967       26.955992
  H           12.857055       21.134168       28.335734
  O           11.145362       21.056469        9.321815
  S           10.078645       21.226641        8.363819
  O            8.770026       20.633377        8.559404
  C            9.882826       22.968018        8.037844
  C            9.971808       23.099380        6.519712
  C           11.029192       22.091603        6.067910
  C           10.673443       20.784238        6.742032
  H            8.926057       23.320619        8.433780
  H           10.705151       23.500362        8.522191
  H           10.233754       24.120067        6.221245
  H            9.006280       22.849958        6.062716
  H           12.023054       22.433699        6.401988
  H           11.060861       21.990629        4.982137
  H           11.527792       20.106537        6.836423
  H            9.857942       20.279687        6.214315
  O           31.331751       35.438120       10.796060
  S           32.130948       35.861477       11.921516
  O           31.536285       36.205523       13.198508
  C           33.417907       34.657213       12.187007
  C           34.716504       35.459418       12.190869
  C           34.544879       36.549610       11.132650
  C           33.202779       37.191561       11.409897
  H           33.249870       34.127019       13.128897
  H           33.400962       33.950440       11.353709
  H           35.581025       34.822002       11.976849
  H           34.871117       35.921300       13.173752
  H           34.545708       36.087123       10.131399
  H           35.355300       37.279322       11.161603
  H           32.778025       37.688534       10.532001
  H           33.271440       37.902019       12.239738
  O           36.605398       14.788812       15.339032
  S           37.620277       15.052155       14.346423
  O           37.530838       14.523872       12.998974
  C           37.886833       16.812521       14.262404
  C           39.389885       16.995314       14.455585
  C           39.815497       15.949195       15.486260
  C           39.218490       14.638852       15.020659
  H           37.537271       17.201507       13.301677
  H           37.330987       17.281069       15.078307
  H           39.629761       18.010698       14.788686
  H           39.915886       16.815824       13.509855
  H           39.406545       16.224200       16.472936
  H           40.900391       15.887162       15.582471
  H           39.098664       13.912764       15.830929
  H           39.816032       14.199282       14.215785
  O            7.159886       39.774362       11.747525
  S            6.976111       39.114607       10.476482
  O            6.370592       37.800970       10.374486
  C            6.127387       40.231138        9.376470
  C            7.002604       40.298665        8.127737
  C            8.449310       40.258992        8.620959
  C            8.525862       39.102924        9.594532
  H            5.121199       39.858648        9.163545
  H            6.067691       41.208465        9.861721
  H            6.799581       41.203802        7.545492
  H            6.808885       39.431460        7.484520
  H            8.683559       41.205872        9.135687
  H            9.158546       40.143408        7.800151
  H            9.353353       39.197315       10.304778
  H            8.600499       38.147968        9.064826
  O            5.049839        8.582510       31.955324
  S            3.870157        8.061979       31.305711
  O            3.583191        6.641318       31.260187
  C            2.445612        8.920909       31.945956
  C            1.717446        9.453278       30.714592
  C            2.806072        9.880295       29.729529
  C            3.775185        8.720593       29.651351
  H            1.827341        8.238308       32.536122
  H            2.796878        9.742908       32.574550
  H            1.055544       10.287381       30.970833
  H            1.105728        8.660575       30.266571
  H            3.316630       10.777034       30.118874
  H            2.396312       10.130937       28.750052
  H            4.773541        9.020594       29.317609
  H            3.389623        7.930121       28.999741
  O            8.070186       20.489884       34.005469
  S            7.064490       20.195565       34.998722
  O            7.265390       19.183203       36.017281
  C            6.581423       21.720710       35.784585
  C            5.061635       21.770805       35.651788
  C            4.736403       21.186414       34.276829
  C            5.509085       19.888621       34.182511
  H            6.911617       21.728787       36.827372
  H            7.045851       22.546858       35.240539
  H            4.684666       22.793939       35.754694
  H            4.594807       21.157584       36.432385
  H            5.073766       21.887600       33.495214
  H            3.665317       21.029480       34.141743
  H            5.691817       19.574925       33.149891
  H            4.999293       19.087800       34.727395
  O           16.129304       39.389343        2.360522
  S           16.374292       39.940436        3.672344
  O           15.623830       41.071935        4.181478
  C           16.307177       38.616753        4.864132
  C           17.622496       38.708913        5.633119
  C           18.686429       39.103130        4.608208
  C           18.115952       40.280473        3.847537
  H           15.433727       38.736168        5.511686
  H           16.241092       37.671142        4.320392
  H           17.866476       37.760429        6.123376
  H           17.552700       39.482559        6.407651
  H           18.862012       38.256747        3.923222
  H           19.638136       39.350391        5.080665
  H           18.566577       40.408067        2.858216
  H           18.218431       41.206180        4.422572
  O            4.921247       35.158364       25.018820
  S            3.587491       34.879432       25.496201
  O            2.928268       35.727664       26.470176
  C            2.514316       34.670832       24.088444
  C            1.837648       33.319522       24.302874
  C            2.898611       32.406681       24.918406
  C            3.510015       33.189550       26.060115
  H            1.797162       35.495078       24.035448
  H            3.132442       34.656563       23.187379
  H            1.451211       32.912040       23.362595
  H            0.995409       33.425924       24.997578
  H            3.665917       32.178676       24.159687
  H            2.476615       31.459848       25.258297
  H            4.514454       32.844209       26.324578
  H            2.865177       33.162621       26.944174
  O           24.709301       32.091794       22.726547
  S           23.600975       32.529007       21.911037
  O           22.954779       31.647237       20.958349
  C           22.361111       33.241010       22.975364
  C           22.088128       34.625892       22.394431
  C           23.437326       35.155051       21.907135
  C           24.047223       34.043069       21.081471
  H           21.468404       32.609058       22.989849
  H           22.779128       33.318098       23.982101
  H           21.639370       35.290988       23.139927
  H           21.394972       34.549337       21.547689
  H           24.076565       35.376528       22.778181
  H           23.332042       36.075112       21.330505
  H           25.137029       34.114378       21.008408
  H           23.610579       34.014368       20.078167
  O           25.909234       19.978409       36.246056
  S           25.049191       20.846655       35.477242
  O           25.024761       20.814620       34.027732
  C           23.383362       20.679753       36.088926
  C           22.932466       22.103593       36.404000
  C           24.157990       22.821136       36.970588
  C           25.291355       22.530844       36.010685
  H           22.752197       20.196770       35.337356
  H           23.412554       20.072184       36.996785
  H           22.097252       22.111108       37.112421
  H           22.602957       22.606216       35.486343
  H           24.389861       22.411338       37.967935
  H           23.988881       23.892933       37.083520
  H           26.278393       22.631333       36.473026
  H           25.230517       23.172498       35.125993
  O           13.860263       35.681502       14.188135
  S           13.770938       34.636458       15.180357
  O           13.518227       34.925782       16.578616
  C           12.594778       33.420915       14.618128
  C           13.341042       32.090675       14.676887
  C           14.777940       32.391055       14.249221
  C           15.211570       33.592417       15.060944
  H           11.706634       33.431907       15.256547
  H           12.317163       33.664930       13.589737
  H           12.875139       31.341687       14.027695
  H           13.335833       31.700713       15.702168
  H           14.793484       32.633255       13.173350
  H           15.438751       31.537440       14.406607
  H           16.030881       34.148968       14.595026
  H           15.494981       33.298389       16.076486
  O           24.110242        7.507753       18.494747
  S           24.079572        8.756290       17.770304
  O           24.257093       10.033083       18.434371
  C           25.222630        8.648078       16.406960
  C           24.403973        9.018813       15.173163
  C           23.015658        8.415349       15.388132
  C           22.595748        8.823264       16.783654
  H           26.067252        9.324151       16.568323
  H           25.578384        7.616916       16.341042
  H           24.869831        8.642516       14.256169
  H           24.322438       10.109477       15.088868
  H           23.082231        7.316767       15.316820
  H           22.301344        8.753842       14.636281
  H           21.839030        8.158969       17.212828
  H           22.232365        9.855660       16.798187
  O            4.168950       37.116166        4.322708
  S            4.555540       38.166469        5.234854
  O            5.903757       38.269926        5.758599
  C            4.087399       39.733194        4.525476
  C            3.252090       40.421631        5.601678
  C            2.428858       39.319686        6.269366
  C            3.405202       38.210703        6.596642
  H            4.979008       40.306724        4.256037
  H            3.486629       39.538057        3.633738
  H            2.611846       41.200432        5.173825
  H            3.908166       40.892377        6.344148
  H            1.665085       38.957266        5.561057
  H            1.911413       39.678201        7.160330
  H            2.922162       37.234060        6.701241
  H            3.971964       38.441851        7.504084
  O           27.697245       26.057571       24.110584
  S           27.093073       25.535703       22.907576
  O           25.950676       24.643501       22.947656
  C           26.725363       26.899875       21.820918
  C           27.389814       26.540178       20.494637
  C           28.706406       25.850305       20.853049
  C           28.359214       24.802474       21.888282
  H           25.642891       27.026016       21.726880
  H           27.170070       27.803452       22.245165
  H           27.555312       27.428821       19.876233
  H           26.753227       25.848065       19.929803
  H           29.400538       26.592727       21.281291
  H           29.189077       25.410355       19.979223
  H           29.213386       24.518523       22.511069
  H           27.932874       23.911265       21.417027
  O            3.792780       20.826773       28.037726
  S            3.465711       19.901488       29.096722
  O            2.876247       20.342603       30.345982
  C            2.467636       18.591190       28.415570
  C            3.180812       17.301824       28.814086
  C            4.677778       17.597344       28.716306
  C            4.894831       18.898249       29.458422
  H            1.449819       18.647134       28.812330
  H            2.450454       18.705104       27.328864
  H            2.891098       16.467793       28.166044
  H            2.925071       17.033430       29.846491
  H            4.956438       17.713523       27.655528
  H            5.282369       16.789777       29.131523
  H            5.801733       19.423471       29.142557
  H            4.920948       18.733385       30.540198
  O           15.488213       13.850197       11.808636
  S           14.612410       13.834127       10.660894
  O           14.838971       12.948344        9.535390
  C           12.935905       13.630215       11.230764
  C           12.160575       14.785112       10.602293
  C           13.103052       15.988929       10.621313
  C           14.416571       15.498549       10.051757
  H           12.550692       12.652430       10.927372
  H           12.934049       13.709312       12.320691
  H           11.234074       14.989461       11.149409
  H           11.895478       14.541267        9.566164
  H           13.241813       16.325040       11.662550
  H           12.704633       16.829701       10.051695
  H           15.270964       16.107034       10.364582
  H           14.377120       15.450841        8.958932
  O           10.955993       18.998721       23.933704
  S           10.938348       20.099959       23.000129
  O           10.372429       19.970212       21.671370
  C           10.209270       21.513181       23.805269
  C           11.227418       22.637070       23.631640
  C           12.604536       21.986574       23.766550
  C           12.583134       20.774456       22.860729
  H            9.242725       21.749209       23.350756
  H           10.074535       21.271647       24.862486
  H           11.080441       23.428203       24.374611
  H           11.127770       23.085131       22.635341
  H           12.758528       21.676237       24.813631
  H           13.409498       22.673908       23.502528
  H           13.317149       20.014691       23.147225
  H           12.737672       21.062361       21.816062
  O           14.216775        4.110942       27.136952
  S           13.583377        5.009901       28.072515
  O           13.269882        4.608227       29.430116
  C           14.515221        6.528654       28.117869
  C           13.492976        7.628981       27.845480
  C           12.523208        7.060072       26.809289
  C           12.117734        5.695680       27.323317
  H           15.004423        6.642147       29.089620
  H           15.266276        6.491912       27.324921
  H           13.976203        8.543813       27.486209
  H           12.947597        7.872722       28.765508
  H           13.042282        6.962899       25.841033
  H           11.658713        7.708175       26.658590
  H           11.764114        5.028864       26.530594
  H           11.353940        5.780939       28.102707
  O            5.013648       19.024045       22.802085
  S            4.961030       19.898421       23.949821
  O            3.887547       20.855182       24.136751
  C            5.118278       18.908323       25.423585
  C            6.271376       19.536549       26.201785
  C            7.297279       19.977929       25.157512
  C            6.521206       20.746833       24.110279
  H            4.179757       18.916473       25.985378
  H            5.363813       17.886600       25.123594
  H            6.703205       18.829006       26.917612
  H            5.916210       20.410547       26.761504
  H            7.763401       19.085798       24.706697
  H            8.092897       20.582401       25.595355
  H            7.026069       20.773941       23.139466
  H            6.312435       21.767204       24.446965
  O           30.186137       27.659806       15.175986
  S           29.690192       26.947210       16.329609
  O           30.370188       26.991781       17.609577
  C           27.977139       27.378075       16.567948
  C           27.237154       26.044203       16.623682
  C           27.926032       25.134028       15.606417
  C           29.409072       25.242760       15.887433
  H           27.859125       27.961619       17.485580
  H           27.650619       27.967232       15.707437
  H           26.172481       26.167746       16.398494
  H           27.322972       25.607333       17.626219
  H           27.704457       25.494631       14.587952
  H           27.576171       24.103126       15.676693
  H           30.027449       24.980768       15.023101
  H           29.692313       24.624955       16.745449
  O           19.696282       32.164745       40.027622
  S           20.860761       31.384407       39.681703
  O           21.026024       30.014296       40.126882
  C           21.081954       31.450345       37.914297
  C           22.521197       31.916884       37.712257
  C           22.792255       32.944728       38.811285
  C           22.328109       32.306146       40.102401
  H           20.894292       30.466889       37.473732
  H           20.376949       32.180480       37.509241
  H           22.666552       32.345060       36.714741
  H           23.210456       31.070537       37.821429
  H           22.207951       33.857532       38.606887
  H           23.844832       33.227844       38.856318
  H           22.091012       33.039245       40.879865
  H           23.071287       31.595900       40.478350
  O           27.095008       38.244387       29.292377
  S           26.385005       37.991714       30.523901
  O           27.058439       37.974497       31.807992
  C           24.993991       39.102579       30.613678
  C           23.783919       38.203666       30.853636
  C           24.025049       36.938625       30.029423
  C           25.434407       36.492700       30.353553
  H           25.142674       39.828968       31.417888
  H           24.908578       39.620497       29.655208
  H           22.852185       38.701711       30.564978
  H           23.713345       37.942687       31.916749
  H           23.940336       37.182249       28.957103
  H           23.293952       36.159958       30.251401
  H           25.874116       35.865860       29.571360
  H           25.468647       35.965769       31.312340
  O            8.410696       24.200702       16.779981
  S            7.930725       23.556859       15.580108
  O            7.014272       24.215957       14.669941
  C            9.334190       22.959479       14.657924
  C            9.047839       21.480037       14.414705
  C            8.369929       20.964741       15.684629
  C            7.269986       21.954911       16.000685
  H            9.442070       23.524119       13.727309
  H           10.226894       23.085449       15.275508
  H            9.966431       20.925792       14.194473
  H            8.368667       21.363069       13.561274
  H            9.106635       20.939940       16.505025
  H            7.979475       19.953892       15.558811
  H            6.976173       21.944092       17.055036
  H            6.392113       21.780755       15.370520
  O           29.151003       16.848651       10.302631
  S           27.817231       16.370586       10.580312
  O           26.697829       16.670553        9.708728
  C           27.890568       14.609375       10.844430
  C           27.216965       14.382935       12.195313
  C           27.627447       15.562639       13.077131
  C           27.376416       16.806348       12.252285
  H           27.383349       14.084366       10.029817
  H           28.941869       14.313307       10.880642
  H           27.516578       13.426229       12.636272
  H           26.126571       14.374298       12.075874
  H           28.699734       15.477938       13.320909
  H           27.074208       15.582966       14.017138
  H           27.974943       17.662733       12.578582
  H           26.314967       17.073541       12.258065
  O            7.646320       39.172304       19.854709
  S            6.247666       38.858734       20.028032
  O            5.781718       37.994792       21.095363
  C            5.326780       40.384162       20.073187
  C            4.242962       40.224286       19.010324
  C            4.890800       39.459934       17.855390
  C            5.584710       38.269486       18.481108
  H            4.913066       40.545544       21.072836
  H            6.005930       41.200442       19.815037
  H            3.855968       41.195645       18.684445
  H            3.404064       39.642827       19.412139
  H            5.628198       40.111396       17.357152
  H            4.159460       39.153297       17.106247
  H            6.395308       37.873705       17.861117
  H            4.869400       37.472443       18.707282
  O            8.981028        9.930047        7.040438
  S            8.056586       11.029913        7.182923
  O            8.508867       12.384544        7.434150
  C            6.962267       11.035668        5.775999
  C            5.555460       11.032847        6.368270
  C            5.617944       10.137127        7.605840
  C            6.821800       10.602168        8.396199
  H            7.153184       11.914434        5.153246
  H            7.142495       10.124738        5.199870
  H            4.817594       10.670244        5.644686
  H            5.268996       12.049688        6.663691
  H            5.752462        9.089240        7.289237
  H            4.702119       10.190273        8.196213
  H            7.216334        9.831367        9.065757
  H            6.590241       11.505879        8.968725
  O            5.591957       19.546881       18.152887
  S            4.717075       20.112684       17.153363
  O            4.751458       21.521771       16.812786
  C            4.867303       19.151483       15.659869
  C            3.438750       18.750960       15.301097
  C            2.731692       18.468277       16.626978
  C            3.034278       19.651335       17.520855
  H            5.345697       19.745317       14.875650
  H            5.473502       18.269603       15.881251
  H            3.422164       17.877334       14.640792
  H            2.934700       19.576446       14.783598
  H            3.141867       17.544059       17.067407
  H            1.658162       18.325202       16.495976
  H            2.942202       19.415993       18.585860
  H            2.393658       20.503827       17.273947
  O           32.798939       31.197839       17.163406
  S           31.832914       30.132764       17.293833
  O           31.651438       29.130990       16.261256
  C           32.099437       29.314629       18.854800
  C           30.740596       29.334835       19.549814
  C           30.105870       30.681527       19.201469
  C           30.243953       30.831590       17.701931
  H           32.470864       28.299089       18.689811
  H           32.833788       29.892181       19.421689
  H           30.843149       29.205211       20.632487
  H           30.110662       28.521378       19.169328
  H           30.656390       31.486509       19.716571
  H           29.063549       30.736991       19.518631
  H           30.205840       31.874627       17.372202
  H           29.479516       30.249871       17.177202
  O           12.058031       24.260518       16.960932
  S           12.350552       23.979904       15.575188
  O           11.613037       24.603981       14.493847
  C           14.095122       24.224667       15.303954
  C           14.584471       22.923484       14.673588
  C           13.808994       21.800295       15.362704
  C           12.353933       22.214457       15.324418
  H           14.258285       25.091322       14.656817
  H           14.571380       24.389121       16.273662
  H           15.665898       22.801430       14.796547
  H           14.362920       22.918647       13.599255
  H           14.151496       21.710360       16.407216
  H           13.967372       20.836119       14.877542
  H           11.752407       21.732004       16.101274
  H           11.915316       22.016814       14.341233
  O           21.268180       10.220275       20.292348
  S           21.445904        9.093213       21.177077
  O           22.708663        8.829458       21.839324
  C           20.146290        9.120264       22.396614
  C           19.506155        7.736470       22.324214
  C           19.507330        7.345272       20.846120
  C           20.911472        7.608399       20.346770
  H           20.560910        9.339181       23.384878
  H           19.429112        9.894777       22.113797
  H           18.492588        7.742453       22.739119
  H           20.102320        7.015146       22.896559
  H           18.785573        7.977719       20.302542
  H           19.214256        6.304974       20.697833
  H           20.958266        7.756392       19.263254
  H           21.589848        6.800677       20.639157
  O           31.694032        8.513549       20.156106
  S           31.446775        9.934624       20.219418
  O           31.697794       10.808052       19.089456
  C           29.779462       10.194211       20.793599
  C           29.913535       11.136744       21.986727
  C           31.188453       10.716150       22.718495
  C           32.261107       10.606127       21.656654
  H           29.166121       10.616686       19.992457
  H           29.371853        9.229367       21.105256
  H           29.036459       11.081824       22.640350
  H           30.012926       12.172486       21.639365
  H           31.025633        9.736192       23.197632
  H           31.464868       11.425527       23.499827
  H           33.086909        9.950616       21.950690
  H           32.650357       11.593297       21.388176
  O           38.868701        8.191939       16.476497
  S           38.999427        7.427901       15.258402
  O           39.278938        8.059106       13.983194
  C           40.183916        6.124395       15.532004
  C           39.463088        4.842093       15.124561
  C           38.011619        5.009864       15.574995
  C           37.575324        6.370359       15.076096
  H           41.086134        6.304269       14.940271
  H           40.433460        6.107930       16.595797
  H           39.927287        3.960533       15.579393
  H           39.498786        4.719723       14.035042
  H           37.967071        4.976420       16.676492
  H           37.369954        4.214692       15.192807
  H           36.735724        6.783863       15.643712
  H           37.320585        6.335123       14.012157
  O           27.398035        3.653135       21.061399
  S           28.324068        3.155338       20.071823
  O           27.948413        2.998118       18.680110
  C           29.821549        4.117760       20.162899
  C           30.941158        3.093722       20.329394
  C           30.380409        1.995155       21.233003
  C           29.032873        1.625388       20.651952
  H           29.937170        4.722000       19.258451
  H           29.756692        4.767604       21.039082
  H           31.839643        3.549692       20.758715
  H           31.209977        2.667604       19.354991
  H           30.258044        2.392486       22.254549
  H           31.046016        1.132712       21.290095
  H           28.363485        1.165468       21.385772
  H           29.146336        0.962302       19.788503
  O           36.941944       26.887946        8.223347
  S           38.068533       26.450810        9.013480
  O           37.898108       25.796319       10.296171
  C           39.125093       25.447654        7.986660
  C           40.510179       26.077321        8.108953
  C           40.285460       27.588525        8.168649
  C           39.207903       27.808612        9.208184
  H           39.105517       24.408334        8.327146
  H           38.760171       25.509575        6.958459
  H           41.152312       25.797920        7.266871
  H           40.996918       25.740599        9.032535
  H           39.941176       27.943659        7.182876
  H           41.200554       28.128983        8.414834
  H           38.675857       28.756173        9.077207
  H           39.621644       27.753801       10.220071
  O           39.203408        2.771397        7.156236
  S           39.459999        3.924939        6.326716
  O           40.683766        4.062316        5.561065
  C           38.066872        4.162425        5.240531
  C           37.638183        5.611312        5.456986
  C           37.825589        5.890908        6.948463
  C           39.216921        5.404561        7.291771
  H           38.357181        3.961334        4.205262
  H           37.275077        3.473840        5.545673
  H           36.601287        5.772717        5.143466
  H           38.277503        6.284658        4.872883
  H           37.072486        5.324481        7.521523
  H           37.697138        6.947863        7.186048
  H           39.337994        5.173690        8.354852
  H           39.974317        6.131910        6.982880
  O           40.805767        5.449858       20.550283
  S           39.648336        6.265891       20.831430
  O           38.384559        5.687981       21.245659
  C           40.116884        7.530875       21.996454
  C           39.691729        8.845020       21.346710
  C           39.965511        8.686766       19.850783
  C           39.355825        7.359753       19.453894
  H           39.623774        7.359683       22.957721
  H           41.201732        7.493584       22.122605
  H           40.237998        9.695137       21.769074
  H           38.620444        9.016274       21.508951
  H           41.055114        8.670766       19.680752
  H           39.551174        9.511609       19.269356
  H           39.803802        6.938125       18.548552
  H           38.272709        7.448794       19.323387
  O            4.180036        7.672451        3.956863
  S            4.035156        8.253426        2.643060
  O            3.376092        7.548294        1.560875
  C            3.299696        9.867815        2.815820
  C            4.243467       10.814113        2.078450
  C            5.657952       10.304640        2.356785
  C            5.628223        8.818108        2.074756
  H            2.290410        9.869590        2.394111
  H            3.258949       10.112025        3.880198
  H            4.114265       11.848905        2.413132
  H            4.045079       10.779476        1.000144
  H            5.907404       10.485962        3.415697
  H            6.404529       10.816400        1.747831
  H            6.419489        8.269206        2.595049
  H            5.687313        8.621313        0.999638
  O            6.832268       24.678630       21.081795
  S            6.610346       24.975639       22.477193
  O            5.383201       24.604548       23.154768
  C            7.997704       24.363534       23.413977
  C            8.485366       25.559682       24.227190
  C            8.328076       26.781206       23.321133
  C            6.923310       26.707698       22.763072
  H            7.686572       23.526201       24.045302
  H            8.765839       24.033828       22.710087
  H            9.523687       25.427572       24.549582
  H            7.865421       25.683785       25.123608
  H            9.065741       26.724026       22.503221
  H            8.500720       27.714577       23.858824
  H            6.806896       27.261483       21.826125
  H            6.191011       27.062097       23.495355
  O           34.656344       19.796361       31.278697
  S           35.162289       21.077693       31.710913
  O           35.441051       21.361679       33.105310
  C           36.602869       21.474641       30.739233
  C           36.321690       22.859075       30.161149
  C           34.829812       22.884442       29.827295
  C           34.118496       22.368263       31.059280
  H           37.498211       21.456552       31.367354
  H           36.692033       20.732232       29.942314
  H           36.936482       23.055432       29.276291
  H           36.545294       23.631453       30.907294
  H           34.638167       22.217551       28.970016
  H           34.488732       23.883683       29.552918
  H           33.125885       21.962280       30.840187
  H           34.038379       23.148978       31.822277
  O            8.991073        3.771177       31.423547
  S            8.335837        3.513411       30.163062
  O            8.780117        2.462315       29.268350
  C            6.589261        3.320558       30.461860
  C            5.913775        4.308718       29.514676
  C            6.810643        5.546625       29.482823
  C            8.215543        5.037055       29.244509
  H            6.286465        2.286309       30.274390
  H            6.390251        3.583800       31.503637
  H            4.899889        4.553616       29.848681
  H            5.844232        3.878321       28.508087
  H            6.752968        6.061957       30.456223
  H            6.502277        6.255768       28.713326
  H            8.986293        5.734493       29.587473
  H            8.373749        4.802007       28.187237
  O           39.564539       17.418465       28.504591
  S           40.022461       17.536690       29.868750
  O           41.130409       18.397882       30.234126
  C           38.623551       17.920988       30.904302
  C           38.641141       16.861670       32.003136
  C           39.084216       15.561347       31.331834
  C           40.319513       15.907066       30.528891
  H           38.714741       18.936767       31.299748
  H           37.717649       17.837018       30.298918
  H           37.657922       16.757755       32.474285
  H           39.362461       17.138493       32.781831
  H           38.282503       15.206699       30.662594
  H           39.282693       14.772454       32.058714
  H           40.504959       15.206648       29.708450
  H           41.202834       15.964400       31.172752
  O           14.172831        6.861101       17.886250
  S           13.549778        8.110849       17.519461
  O           14.312047        9.336673       17.381610
  C           12.593310        7.853239       16.037635
  C           11.194043        8.360624       16.376033
  C           10.941158        7.968465       17.832076
  C           12.165558        8.413728       18.602003
  H           13.043602        8.392889       15.199474
  H           12.576388        6.781566       15.824492
  H           10.440567        7.932606       15.706277
  H           11.154846        9.452349       16.276529
  H           10.827358        6.873472       17.898702
  H           10.029927        8.421174       18.225538
  H           12.304239        7.863762       19.538168
  H           12.131374        9.488530       18.806288
  O           37.158263       14.255131       32.301461
  S           35.859913       14.433905       32.907206
  O           35.673326       14.403006       34.344888
  C           35.134237       15.927924       32.260443
  C           33.765474       15.507019       31.732024
  C           33.955785       14.119365       31.118838
  C           34.702878       13.305796       32.153322
  H           35.065296       16.684936       33.047006
  H           35.768619       16.291503       31.448304
  H           33.382664       16.223578       30.997518
  H           33.044587       15.449473       32.556834
  H           34.556832       14.208426       30.198398
  H           33.005030       13.656515       30.850629
  H           35.244643       12.459000       31.720279
  H           34.026042       12.950039       32.936541
  O           19.000073       30.666572       15.837208
  S           19.052740       32.011058       15.313584
  O           18.325652       32.398628       14.120340
  C           18.655969       33.146834       16.628722
  C           19.814458       34.140308       16.657230
  C           21.075909       33.329773       16.357940
  C           20.757574       32.501299       15.132178
  H           17.694282       33.629778       16.432708
  H           18.605666       32.582586       17.563224
  H           19.881720       34.648614       17.625011
  H           19.674968       34.904081       15.882315
  H           21.296527       32.671661       17.215038
  H           21.945155       33.969380       16.198521
  H           21.388243       31.611100       15.043288
  H           20.836150       33.102472       14.220851
  O           10.025413       14.156692       22.249810
  S            8.657295       14.609121       22.159476
  O            7.639159       13.840747       21.469766
  C            8.079296       14.995874       23.800616
  C            7.547614       16.423631       23.707205
  C            8.489106       17.165720       22.758155
  C            8.634220       16.280755       21.539148
  H            7.310126       14.281352       24.107759
  H            8.930775       14.942859       24.483530
  H            7.508805       16.901206       24.692048
  H            6.532459       16.421204       23.291567
  H            9.467514       17.300377       23.249058
  H            8.110420       18.154763       22.496449
  H            9.552606       16.476481       20.976690
  H            7.767664       16.378653       20.877637
  O           26.650009       20.537464       12.140704
  S           28.073850       20.776752       12.136422
  O           29.014816       19.816146       12.679117
  C           28.571429       21.202710       10.478720
  C           29.319977       22.525721       10.617351
  C           28.581022       23.320440       11.694462
  C           28.400437       22.373127       12.860733
  H           29.195940       20.409898       10.056895
  H           27.670153       21.328429        9.873662
  H           29.352474       23.068406        9.666595
  H           30.352771       22.342430       10.938352
  H           27.598563       23.634679       11.304042
  H           29.125471       24.219928       11.985317
  H           27.570291       22.656052       13.515646
  H           29.321693       22.291150       13.446109
  O            7.473795        4.310006       36.630317
  S            7.333849        4.093183       35.209753
  O            6.730566        2.888598       34.673353
  C            6.525682        5.513076       34.497173
  C            7.444241        5.965062       33.364982
  C            8.872707        5.751910       33.866830
  C            8.913560        4.344555       34.421701
  H            5.527095        5.240673       34.143448
  H            6.450279        6.284851       35.267158
  H            7.262943        7.011221       33.096314
  H            7.272067        5.351245       32.472298
  H            9.089995        6.481761       34.664642
  H            9.610140        5.895763       33.075883
  H            9.715756        4.196811       35.151601
  H            9.005482        3.607992       33.617260
  O            3.944626        5.880943       22.751520
  S            3.239312        4.688222       22.345874
  O            2.902525        4.430346       20.959233
  C            4.095105        3.271663       23.007673
  C            3.030285        2.484575       23.766982
  C            2.122420        3.524373       24.424554
  C            1.766922        4.514426       23.336613
  H            4.547159        2.691799       22.197794
  H            4.871873        3.629481       23.687966
  H            3.480115        1.815405       24.508173
  H            2.444855        1.873000       23.069452
  H            2.676070        4.030353       25.233168
  H            1.232975        3.071297       24.864676
  H            1.471154        5.492267       23.729612
  H            0.975533        4.120767       22.690985
  O           25.341342       33.710445       31.982102
  S           26.116259       33.168205       30.891194
  O           25.729951       33.359053       29.506620
  C           27.812816       33.675368       31.094865
  C           28.621658       32.381823       31.045729
  C           27.780556       31.327870       31.766514
  C           26.390599       31.429549       31.176698
  H           28.094539       34.376265       30.303742
  H           27.910106       34.156935       32.070994
  H           29.602957       32.505595       31.516081
  H           28.781183       32.076541       30.004261
  H           27.754162       31.559391       32.844522
  H           28.195254       30.325293       31.652659
  H           25.614709       31.039904       31.843235
  H           26.336560       30.920506       30.209199
  O            6.057079       30.644631       32.292005
  S            5.117933       30.756785       31.201122
  O            5.273378       29.999773       29.974146
  C            3.474539       30.494881       31.839608
  C            2.674687       31.713533       31.386814
  C            3.626723       32.905985       31.484199
  C            4.901961       32.478535       30.790473
  H            3.064730       29.557224       31.453141
  H            3.534719       30.453556       32.929962
  H            1.782196       31.858356       32.004866
  H            2.349645       31.585745       30.346950
  H            3.826689       33.125179       32.546446
  H            3.203871       33.805161       31.033891
  H            5.777646       33.047123       31.119080
  H            4.800638       32.551462       29.703037
  O           28.938673       41.157281       37.896626
  S           29.214478       39.905651       37.231829
  O           28.160094       39.096033       36.652611
  C           30.474157       40.183423       36.001768
  C           31.560629       39.156032       36.308277
  C           31.630607       39.054366       37.832274
  C           30.203305       38.879817       38.304017
  H           30.054779       40.063500       34.998652
  H           30.855050       41.200001       36.127029
  H           32.523726       39.452246       35.879089
  H           31.287112       38.181131       35.886311
  H           32.054300       39.987716       38.239388
  H           32.267423       38.230965       38.158734
  H           30.057063       39.187623       39.344194
  H           29.870887       37.845008       38.174526
  O            7.365187       31.107761       12.681112
  S            7.983500       32.174585       13.432228
  O            8.021236       33.537851       12.939498
  C            7.306197       32.172626       15.080942
  C            8.518096       32.113426       16.007062
  C            9.531487       31.196373       15.321603
  C            9.634904       31.684231       13.892793
  H            6.699880       33.068928       15.240700
  H            6.687184       31.279236       15.194418
  H            8.244694       31.741521       17.000257
  H            8.949763       33.114694       16.127174
  H            9.155836       30.159639       15.343281
  H           10.499903       31.208814       15.823713
  H            9.994807       30.913606       13.203803
  H           10.276030       32.568838       13.825510
  O           22.787054       39.592785       28.552174
  S           21.415578       40.037190       28.473694
  O           21.014371       41.141203       27.623466
  C           20.383137       38.628009       28.119752
  C           19.315484       38.635098       29.210608
  C           20.019945       39.085191       30.490823
  C           20.800253       40.328238       30.121834
  H           19.957410       38.714967       27.115912
  H           20.999620       37.728150       28.186093
  H           18.857286       37.647312       29.328227
  H           18.521979       39.348612       28.956545
  H           20.707105       38.290234       30.825866
  H           19.314413       39.276742       31.300534
  H           21.638864       40.521994       30.798067
  H           20.146308       41.205146       30.083238
  O           28.366551        4.061513        8.152311
  S           29.203362        3.270463        7.281343
  O           28.761024        2.851004        5.965633
  C           30.785986        4.076535        7.131181
  C           31.811498        3.007967        7.500485
  C           31.186855        2.194310        8.634322
  C           29.789321        1.841739        8.173028
  H           30.921912        4.454146        6.113618
  H           30.815682        4.905222        7.842937
  H           32.764353        3.455513        7.802595
  H           32.001651        2.354844        6.639920
  H           31.141578        2.815292        9.544668
  H           31.771391        1.303645        8.869127
  H           29.109181        1.621758        9.001954
  H           29.807252        0.998170        7.475770
  O           20.805709       17.093431        2.902263
  S           21.232233       15.781296        3.327680
  O           20.519859       15.036274        4.347565
  C           21.422587       14.752326        1.884771
  C           22.838752       14.191200        1.982320
  C           23.702932       15.316992        2.551167
  C           22.960784       15.840712        3.761594
  H           20.660368       13.967806        1.877740
  H           21.315502       15.383476        0.999117
  H           23.204335       13.856104        1.005816
  H           22.857485       13.332111        2.664166
  H           23.806451       16.112910        1.794729
  H           24.705305       14.972772        2.809740
  H           23.239093       16.866868        4.021689
  H           23.109759       15.186767        4.626615
  O           10.207214       26.375537       10.606709
  S           10.622512       25.959570       11.925458
  O           10.863791       24.567064       12.250130
  C           12.046640       26.920636       12.400023
  C           11.683067       27.525976       13.753270
  C           10.197232       27.878093       13.675116
  C            9.505132       26.645963       13.133773
  H           12.932937       26.281600       12.451136
  H           12.194636       27.703432       11.652007
  H           12.295237       28.406667       13.974923
  H           11.845846       26.790710       14.550884
  H           10.060893       28.725915       12.983011
  H            9.795117       28.173832       14.645138
  H            8.544174       26.869876       12.659933
  H            9.364101       25.897638       13.920042
  O           27.757192        7.467485        8.611269
  S           27.848391        8.570423        7.684009
  O           27.789859        8.372771        6.248667
  C           26.646721        9.801971        8.149068
  C           27.439724       11.099591        8.280331
  C           28.788598       10.712902        8.887627
  C           29.292397        9.542129        8.071736
  H           25.860016        9.866213        7.391792
  H           26.215440        9.511921        9.110352
  H           26.911609       11.829855        8.902673
  H           27.595963       11.547364        7.291196
  H           28.640456       10.409168        9.937484
  H           29.494636       11.544492        8.879413
  H           30.016042        8.924671        8.613200
  H           29.729308        9.881076        7.127107
  O           14.207154       27.111084        6.303428
  S           13.403085       27.406595        7.465644
  O           13.991792       27.861789        8.710201
  C           12.111159       28.537714        6.987631
  C           10.814928       27.876096        7.448007
  C           10.995525       26.376819        7.208521
  C           12.337978       26.018040        7.807933
  H           12.272501       29.513667        7.454519
  H           12.130565       28.637679        5.899591
  H            9.949713       28.270127        6.904277
  H           10.656322       28.061747        8.517436
  H           10.998790       26.180251        6.123278
  H           10.187109       25.791656        7.649145
  H           12.768970       25.109323        7.375985
  H           12.266888       25.912786        8.895117
  O           29.878389       14.890028        2.507807
  S           30.996812       14.331542        3.230181
  O           30.907277       13.987315        4.635952
  C           31.607992       12.922277        2.326062
  C           33.098930       13.189136        2.136878
  C           33.233113       14.692352        1.891647
  C           32.428100       15.365705        2.981945
  H           31.414419       12.002413        2.885418
  H           31.094808       12.886767        1.361913
  H           33.507011       12.606529        1.304089
  H           33.649206       12.913556        3.044926
  H           32.812889       14.937739        0.901901
  H           34.274580       15.016981        1.899539
  H           32.108083       16.377346        2.713111
  H           32.986893       15.392538        3.922758
  O           12.849820       31.811317        9.212862
  S           11.955570       31.650094       10.334880
  O           12.359030       31.972358       11.689895
  C           10.429167       32.494290        9.968234
  C            9.337454       31.448600       10.179413
  C            9.914929       30.124964        9.677110
  C           11.282318       29.999046       10.313185
  H           10.311089       33.361904       10.623828
  H           10.460178       32.817514        8.924796
  H            8.418880       31.716125        9.646353
  H            9.097684       31.364457       11.246526
  H           10.008381       30.163067        8.578832
  H            9.274055       29.278026        9.926262
  H           11.952480       29.336430        9.756478
  H           11.202903       29.658030       11.350249
  O           25.031513       29.351293       16.691129
  S           24.561788       30.214142       15.633088
  O           23.415922       29.869576       14.813963
  C           24.327082       31.850652       16.299232
  C           25.132902       32.769848       15.385103
  C           26.396473       31.994507       15.010890
  C           25.928685       30.626199       14.564677
  H           23.262765       32.102642       16.314416
  H           24.727891       31.865941       17.315755
  H           25.372517       33.716721       15.880599
  H           24.558567       32.997588       14.478696
  H           27.043585       31.904187       15.899422
  H           26.970603       32.498804       14.232327
  H           26.706032       29.860432       14.650893
  H           25.551459       30.655989       13.537587
  O           39.144054       37.153111       19.625734
  S           38.850728       37.805565       18.371595
  O           39.500325       37.417490       17.134615
  C           37.085171       37.795112       18.127256
  C           36.712000       39.252864       17.871126
  C           37.608190       40.087389       18.786665
  C           39.014622       39.569167       18.577868
  H           36.824204       37.142130       17.289395
  H           36.616018       37.429872       19.044150
  H           35.650577       39.434963       18.070430
  H           36.909874       39.514095       16.824271
  H           37.298600       39.935789       19.834316
  H           37.534487       41.154045       18.570073
  H           39.676961       39.780062       19.423403
  H           39.449279       39.973161       17.658106
  O           27.390900        1.007400       11.644683
  S           28.083321        1.761773       12.662561
  O           27.789806        1.596381       14.072949
  C           29.837916        1.575867       12.409901
  C           30.381540        3.000553       12.341759
  C           29.327324        3.821838       11.598846
  C           28.004907        3.496913       12.259027
  H           30.277661        0.998048       13.227978
  H           29.992797        1.055730       11.461392
  H           31.351233        3.034762       11.833797
  H           30.514919        3.401740       13.353963
  H           29.308877        3.515830       10.539404
  H           29.543264        4.890666       11.631643
  H           27.145438        3.683997       11.607558
  H           27.886795        4.051634       13.195208
  O           34.851103       35.247023       28.473809
  S           35.559999       34.847705       27.281076
  O           35.167257       35.310399       25.964122
  C           37.295819       35.176565       27.517252
  C           37.994274       33.852970       27.216989
  C           37.081496       32.757038       27.767960
  C           35.694832       33.069930       27.248864
  H           37.620892       35.982311       26.852722
  H           37.449077       35.468505       28.559116
  H           38.990294       33.814370       27.670810
  H           38.110346       33.725477       26.133673
  H           37.092622       32.795286       28.870146
  H           37.410103       31.761181       27.467316
  H           34.900898       32.630246       27.860785
  H           35.582551       32.746124       26.209325
  O           17.271642        5.333416       21.045478
  S           17.923789        4.569043       20.008637
  O           18.108918        5.094146       18.669722
  C           19.493753        3.997161       20.629251
  C           19.483264        2.487695       20.402750
  C           18.051249        2.027443       20.677160
  C           17.155765        2.963756       19.895094
  H           20.312110        4.494694       20.100807
  H           19.543881        4.229070       21.695978
  H           20.202036        1.980373       21.055046
  H           19.750206        2.260826       19.363244
  H           17.842393        2.114558       21.756600
  H           17.894226        0.986249       20.391927
  H           16.138182        3.014340       20.295177
  H           17.123602        2.683929       18.837378
  O           29.530729       21.994636       17.362711
  S           29.093233       22.113238       18.733525
  O           29.959255       22.635529       19.772716
  C           27.551293       23.006935       18.760453
  C           26.589026       22.113442       19.538664
  C           26.926278       20.676827       19.138413
  C           28.428247       20.548867       19.272262
  H           27.689962       23.984255       19.231747
  H           27.213387       23.135435       17.729188
  H           25.545447       22.359908       19.315735
  H           26.744526       22.241489       20.616960
  H           26.622204       20.510699       18.091350
  H           26.402060       19.946108       19.755945
  H           28.844036       19.742570       18.659804
  H           28.718364       20.405959       20.317972
  O           38.110609       13.682866        7.331530
  S           37.923781       13.546681        5.906346
  O           39.017049       13.718819        4.969418
  C           37.126676       11.984854        5.586471
  C           35.901308       12.330518        4.744515
  C           35.366504       13.652348        5.296375
  C           36.560941       14.576413        5.394469
  H           37.814089       11.309585        5.068808
  H           36.829388       11.551037        6.544398
  H           35.146520       11.538387        4.792714
  H           36.190141       12.459877        3.694209
  H           34.935546       13.480288        6.296910
  H           34.582014       14.071967        4.665030
  H           36.417639       15.383389        6.119971
  H           36.811702       14.998925        4.416357
  O           32.993695        9.983035       24.148328
  S           33.632833        9.981146       25.442970
  O           35.071692        9.874612       25.588006
  C           33.061346       11.399592       26.358620
  C           32.545001       10.836417       27.680029
  C           31.873137        9.505609       27.340399
  C           32.858657        8.750361       26.475210
  H           33.878741       12.113026       26.497824
  H           32.251401       11.866988       25.793174
  H           31.847746       11.528280       28.164448
  H           33.381602       10.661689       28.367683
  H           30.944739        9.700682       26.777883
  H           31.606413        8.941635       28.235324
  H           32.381056        7.991825       25.847021
  H           33.640901        8.286672       27.084461
  O           12.910408       33.518590       35.234000
  S           12.103005       33.142843       36.370449
  O           12.623445       33.169534       37.723641
  C           10.582022       34.070548       36.315925
  C            9.475462       33.022452       36.399115
  C            9.965772       31.822543       35.588181
  C           11.374216       31.544013       36.066623
  H           10.545994       34.784815       37.143586
  H           10.541171       34.603026       35.362511
  H            8.527160       33.410458       36.012235
  H            9.318368       32.722413       37.442474
  H            9.973050       32.086511       34.517355
  H            9.318160       30.953297       35.711108
  H           11.975104       31.000329       35.330797
  H           11.365731       30.996279       37.014260
  O           41.013639       17.193140       35.053637
  S           40.212706       18.039303       35.906346
  O           40.201246       17.884529       37.348086
  C           40.565983       19.740509       35.508736
  C           39.205537       20.371807       35.224925
  C           38.386317       19.305214       34.497562
  C           38.530373       18.039940       35.315199
  H           41.086175       20.222344       36.341644
  H           41.195878       19.758485       34.615927
  H           39.304666       21.282896       34.625266
  H           38.709976       20.638201       36.166601
  H           38.801937       19.154508       33.487142
  H           37.341142       19.597256       34.386115
  H           38.345510       17.132001       34.732470
  H           37.870507       18.059554       36.188293
  O            7.116418       14.204385       13.238033
  S            5.823974       14.155415       12.596325
  O            5.467120       15.059297       11.520057
  C            5.514922       12.479915       12.072693
  C            4.159861       12.119814       12.676046
  C            4.120726       12.779156       14.055008
  C            4.549999       14.214705       13.842589
  H            5.516868       12.419635       10.980511
  H            6.303362       11.843587       12.482142
  H            4.027884       11.034694       12.743851
  H            3.351291       12.521202       12.052827
  H            4.831048       12.264741       14.723753
  H            3.131494       12.716628       14.510651
  H            4.945858       14.680481       14.750580
  H            3.725458       14.816616       13.447703
  O           19.174287       18.041666       19.216717
  S           18.970765       17.208882       20.378460
  O           19.354865       17.640408       21.708480
  C           17.267283       16.685183       20.408307
  C           17.322387       15.163631       20.516670
  C           18.509055       14.720022       19.660615
  C           19.670996       15.597725       20.072599
  H           16.745452       17.146895       21.251524
  H           16.799966       16.990561       19.468861
  H           16.387232       14.704466       20.178807
  H           17.488706       14.865937       21.559271
  H           18.269322       14.881205       18.596215
  H           18.735976       13.661190       19.792834
  H           20.443243       15.673435       19.300587
  H           20.116807       15.245214       21.008060
  O           23.640507       22.008192       27.866831
  S           24.376589       20.781156       27.674047
  O           25.142154       20.527069       26.469037
  C           25.424377       20.520652       29.092242
  C           25.086424       19.114895       29.581666
  C           23.579368       18.948007       29.384866
  C           23.292119       19.396600       27.968373
  H           26.475707       20.624354       28.808603
  H           25.167268       21.266871       29.848054
  H           25.374270       18.976125       30.629228
  H           25.621098       18.368337       28.981603
  H           23.045767       19.592393       30.103502
  H           23.255468       17.920544       29.556648
  H           22.252667       19.706532       27.821471
  H           23.549440       18.613045       27.248700
  O            9.617605       19.211927       19.402816
  S            8.638495       20.227558       19.095509
  O            7.716377       20.092992       17.984523
  C            7.713824       20.588969       20.575835
  C            7.817834       22.102006       20.748464
  C            9.233666       22.482246       20.314137
  C            9.454077       21.808843       18.976921
  H            6.679689       20.249564       20.466893
  H            8.190178       20.069539       21.410988
  H            7.619277       22.401095       21.783172
  H            7.087080       22.605873       20.103936
  H            9.955653       22.100966       21.055595
  H            9.365236       23.563211       20.248534
  H           10.513061       21.659330       18.743895
  H            8.973946       22.371623       18.170167
  O           34.497655       37.992169       34.695836
  S           34.560223       38.560335       33.369988
  O           35.763617       38.495396       32.563560
  C           33.190439       37.930815       32.418992
  C           32.483926       39.169336       31.874192
  C           32.556486       40.220839       32.981837
  C           34.000920       40.252378       33.432187
  H           33.553694       37.272062       31.624894
  H           32.534134       37.374745       33.092972
  H           31.448222       38.948541       31.594786
  H           33.004401       39.538010       30.981732
  H           31.904357       39.914304       33.816800
  H           32.218727       41.200004       32.639410
  H           34.122833       40.642396       34.447629
  H           34.616205       40.832366       32.737105
  O           27.632320       34.742439        5.685771
  S           27.132366       35.642186        4.673299
  O           27.399962       35.435182        3.263248
  C           25.376320       35.838421        4.907381
  C           25.153968       37.346152        4.992267
  C           26.352240       37.909334        5.756970
  C           27.580509       37.313573        5.103805
  H           24.831565       35.380437        4.076724
  H           25.100872       35.352154        5.846462
  H           24.208753       37.583536        5.491983
  H           25.123003       37.779722        3.985113
  H           26.291101       37.593010        6.811770
  H           26.373749       38.999882        5.738466
  H           28.452189       37.301193        5.765711
  H           27.827421       37.841421        4.177247
  O           18.957359       30.063571       35.868487
  S           18.369146       30.728588       34.729910
  O           16.940075       30.951146       34.625396
  C           19.216804       32.276155       34.477889
  C           19.663293       32.250261       33.018479
  C           20.071580       30.806263       32.725269
  C           18.938895       29.941561       33.234693
  H           18.547192       33.112974       34.696647
  H           20.080102       32.305243       35.147270
  H           20.489276       32.947093       32.840496
  H           18.830714       32.537584       32.364600
  H           21.001977       30.574200       33.270162
  H           20.259282       30.641590       31.663313
  H           19.251101       28.915954       33.455504
  H           18.104862       29.929574       32.525929
  O           31.568851       18.745361       25.560385
  S           32.830321       18.133101       25.904521
  O           33.817565       18.815560       26.718339
  C           32.507130       16.528245       26.609492
  C           33.354864       15.557973       25.791066
  C           33.307283       16.065019       24.349387
  C           33.619151       17.544301       24.417658
  H           32.770709       16.522581       27.671092
  H           31.443037       16.310634       26.488863
  H           32.978322       14.532607       25.870702
  H           34.391136       15.567279       26.150725
  H           32.294197       15.908268       23.942586
  H           34.009242       15.533584       23.705235
  H           33.238971       18.100754       23.555147
  H           34.695436       17.714130       24.521911
  O           16.617111       12.322620       10.669342
  S           17.845331       12.512556        9.934496
  O           18.602826       11.395385        9.404561
  C           17.546025       13.683493        8.624411
  C           18.612288       14.760763        8.804610
  C           18.781335       14.942220       10.313351
  C           18.940666       13.550090       10.885004
  H           17.612116       13.186714        7.652124
  H           16.545549       14.101011        8.761987
  H           18.321779       15.696785        8.315767
  H           19.560994       14.429140        8.364972
  H           17.877209       15.421257       10.725029
  H           19.633582       15.578488       10.556120
  H           18.674510       13.491112       11.945090
  H           19.960369       13.180062       10.738767
  O           18.193336       25.160236        7.926143
  S           17.018013       24.322864        7.881154
  O           16.405578       23.795084        9.084928
  C           15.771541       25.148271        6.910581
  C           15.360030       24.132794        5.847864
  C           16.638298       23.394998        5.448505
  C           17.301023       22.978943        6.743841
  H           14.935501       25.449968        7.548167
  H           16.225542       26.029258        6.450207
  H           14.891083       24.622030        4.987494
  H           14.639069       23.420101        6.266891
  H           17.294690       24.082496        4.889136
  H           16.432283       22.537330        4.806583
  H           18.376975       22.808543        6.637107
  H           16.824637       22.085227        7.159084
  O           21.879996       12.995256        5.808982
  S           22.197594       12.457375        7.110679
  O           22.915276       13.230242        8.105823
  C           20.701569       11.819624        7.840188
  C           21.031482       10.380229        8.226451
  C           21.934037        9.839476        7.117046
  C           23.010392       10.882947        6.910096
  H           20.412325       12.428973        8.701310
  H           19.914060       11.847369        7.083049
  H           20.123601        9.777794        8.337462
  H           21.570131       10.360526        9.181841
  H           21.341721        9.715956        6.194926
  H           22.357872        8.867062        7.371750
  H           23.470188       10.830731        5.918148
  H           23.784098       10.806928        7.680616
  O           22.482984        5.708579       16.695825
  S           21.231878        5.675277       15.975946
  O           20.798836        6.777386       15.138969
  C           21.163369        4.166645       15.029196
  C           19.846203        3.507224       15.429367
  C           19.671811        3.780287       16.923631
  C           19.917192        5.262224       17.107621
  H           21.212357        4.390060       13.959529
  H           22.012985        3.543310       15.318687
  H           19.854782        2.433463       15.213810
  H           19.015007        3.957846       14.873172
  H           20.418799        3.198025       17.488767
  H           18.683522        3.487169       17.280656
  H           20.215969        5.521762       18.128146
  H           19.035781        5.844568       16.821107
  O           20.023672       28.677376       20.358874
  S           20.748921       29.688254       19.626249
  O           21.000375       31.004710       20.179796
  C           22.291464       28.988299       19.071611
  C           22.323221       29.241805       17.566744
  C           20.887000       29.058741       17.075259
  C           20.019907       29.874442       18.009594
  H           23.129008       29.459697       19.593917
  H           22.275796       27.916507       19.284252
  H           23.013066       28.558217       17.060462
  H           22.653717       30.268033       17.364434
  H           20.614898       27.991781       17.138174
  H           20.766795       29.371013       16.036926
  H           18.980254       29.532936       18.033988
  H           20.053918       30.937054       17.749212
  O           16.628476        2.971973       15.293252
  S           15.893200        3.666305       14.262780
  O           14.444151        3.650031       14.210911
  C           16.456339        5.356484       14.206479
  C           16.844830        5.596354       12.749964
  C           17.480263        4.294660       12.260455
  C           16.530600        3.188859       12.667327
  H           15.663526        6.029687       14.545219
  H           17.327113        5.447923       14.860384
  H           17.533499        6.442521       12.653852
  H           15.951321        5.817200       12.153165
  H           18.456595        4.158722       12.755122
  H           17.652538        4.303085       11.183260
  H           17.020148        2.212904       12.744486
  H           15.684250        3.124252       11.976228
  O            6.426468       31.471277        6.564942
  S            7.582329       32.004820        5.883827
  O            8.050845       33.357900        6.112668
  C            8.942620       30.874836        6.106863
  C            9.444969       30.576281        4.696753
  C            8.202110       30.510759        3.808604
  C            7.395583       31.750599        4.128778
  H            9.711326       31.329858        6.738168
  H            8.558961       29.968619        6.582021
  H           10.013640       29.640829        4.664454
  H           10.101893       31.384247        4.351874
  H            7.623931       29.605643        4.059350
  H            8.458221       30.457898        2.749494
  H            6.334057       31.644069        3.884009
  H            7.806082       32.628236        3.619520
  O           24.802685       25.113654       13.230712
  S           24.791865       26.544550       13.423110
  O           25.286295       27.158714       14.640091
  C           25.586398       27.310106       12.023238
  C           24.580809       28.337236       11.509728
  C           23.201106       27.699083       11.673984
  C           23.154337       27.166750       13.089835
  H           26.532329       27.766218       12.329304
  H           25.771016       26.538558       11.271686
  H           24.779847       28.604942       10.466551
  H           24.637031       29.252880       12.111173
  H           23.095680       26.871366       10.952756
  H           22.395976       28.409990       11.482993
  H           22.422639       26.363076       13.219550
  H           22.951415       27.970334       13.804800
  O           32.041486       41.199325        6.316458
  S           31.814319       39.819323        6.675053
  O           31.796134       39.378659        8.056424
  C           30.324994       39.262738        5.869369
  C           30.730790       37.998835        5.115858
  C           32.140862       38.256416        4.583740
  C           32.938651       38.784032        5.756494
  H           29.542464       39.075946        6.610486
  H           30.001481       40.041668        5.174525
  H           30.028910       37.773329        4.305912
  H           30.746128       37.141142        5.799545
  H           32.094275       39.014167        3.783713
  H           32.590010       37.356100        4.162079
  H           33.810682       39.370353        5.450079
  H           33.254279       37.968720        6.415087
  O           17.421189        9.238840       13.648831
  S           15.981472        9.248648       13.540581
  O           15.131096        8.677493       14.566906
  C           15.449891       10.917483       13.209808
  C           14.583619       10.816423       11.957107
  C           15.245254        9.763457       11.067556
  C           15.509508        8.570467       11.960385
  H           14.900960       11.315605       14.068105
  H           16.336959       11.526802       13.019963
  H           14.503366       11.782436       11.447325
  H           13.571303       10.489250       12.224454
  H           16.195623       10.163756       10.676455
  H           14.620588        9.498193       10.213432
  H           16.309314        7.924816       11.584159
  H           14.598588        7.982066       12.109078
  O           25.843882       11.046079       28.407417
  S           26.209606        9.797764       29.033960
  O           25.378741        8.614040       28.928312
  C           27.872739        9.384253       28.544065
  C           28.625419        9.154262       29.851917
  C           28.082151       10.185814       30.841138
  C           26.574204       10.092090       30.754465
  H           27.867665        8.498701       27.901981
  H           28.290051       10.235687       28.000823
  H           29.707030        9.257792       29.714443
  H           28.426914        8.143123       30.228073
  H           28.418748       11.191546       30.538473
  H           28.440201       10.007714       31.856116
  H           26.070196       11.005541       31.085651
  H           26.200684        9.236095       31.325301
  O           26.650141        7.842178       10.475001
  S           26.684290        6.491391       10.983735
  O           27.719008        5.551954       10.597061
  C           26.593458        6.553899       12.762735
  C           25.427567        5.640636       13.132261
  C           24.366856        5.848053       12.050748
  C           25.092264        5.730026       10.727852
  H           27.539853        6.223544       13.200573
  H           26.386740        7.585613       13.057751
  H           25.038011        5.872840       14.129170
  H           25.754340        4.593488       13.131607
  H           23.931799        6.855900       12.157372
  H           23.553514        5.125490       12.131237
  H           24.570880        6.235362        9.908771
  H           25.262914        4.681020       10.466004
  O            6.317086       12.051341       22.476333
  S            7.459457       11.659286       21.685206
  O            8.808049       12.063939       22.031987
  C            7.421424        9.889861       21.473815
  C            7.511091        9.668939       19.966150
  C            6.691995       10.788875       19.323790
  C            7.157006       12.072292       19.977094
  H            8.251655        9.427359       22.015395
  H            6.470120        9.519996       21.864227
  H            7.133900        8.680293       19.683655
  H            8.554840        9.740334       19.636314
  H            5.621997       10.621793       19.532569
  H            6.817891       10.818430       18.240565
  H            6.414131       12.874086       19.919093
  H            8.102922       12.412764       19.544173
  O           17.693948       18.997497       20.533704
  S           17.853701       19.978133       19.486120
  O           18.014673       19.596773       18.096389
  C           16.527799       21.162636       19.612364
  C           17.216594       22.523473       19.672237
  C           18.483838       22.321359       20.503527
  C           19.167506       21.099039       19.930175
  H           15.856306       21.070062       18.753861
  H           15.979853       20.964136       20.536784
  H           16.562515       23.283801       20.112216
  H           17.487688       22.853322       18.661788
  H           18.203584       22.142261       21.555088
  H           19.134014       23.196986       20.478077
  H           19.840095       20.612363       20.643527
  H           19.715759       21.348436       19.016217
  O           17.549479       34.787751       21.470440
  S           17.734274       33.653340       20.596619
  O           17.666090       33.777492       19.153485
  C           19.258734       32.841629       21.037243
  C           18.877510       31.382063       21.270128
  C           17.504561       31.404279       21.942673
  C           16.648826       32.335746       21.111837
  H           19.994319       32.960137       20.236387
  H           19.633711       33.296263       21.957515
  H           19.621287       30.868164       21.888354
  H           18.809586       30.852855       20.311679
  H           17.608833       31.796762       22.968092
  H           17.066575       30.407552       22.011978
  H           15.805047       32.752417       21.670873
  H           16.283245       31.833656       20.210529
  O           24.018816       30.537658       28.241917
  S           23.868540       29.601909       29.331132
  O           24.037119       30.001732       30.714759
  C           22.300082       28.773929       29.153955
  C           22.632157       27.284496       29.188812
  C           23.956520       27.127470       28.441011
  C           24.887061       28.172112       29.018088
  H           21.623280       29.071527       29.960104
  H           21.873777       29.053865       28.187467
  H           21.836966       26.686601       28.730888
  H           22.753124       26.949628       30.226372
  H           23.791724       27.316562       27.367006
  H           24.366571       26.121567       28.541586
  H           25.700049       28.442366       28.336831
  H           25.301656       27.842297       29.975916
  O           35.101240       22.177780       22.191046
  S           34.363649       21.392874       23.152545
  O           33.811527       20.093802       22.820471
  C           35.343922       21.244679       24.633796
  C           34.432573       21.721957       25.761425
  C           33.622687       22.885514       25.188694
  C           33.075408       22.399829       23.864007
  H           35.670132       20.209294       24.768200
  H           36.213431       21.899102       24.534370
  H           35.010155       22.026661       26.640660
  H           33.754148       20.915056       26.064658
  H           34.289922       23.749386       25.030820
  H           32.825802       23.200920       25.863670
  H           32.827681       23.217070       23.179282
  H           32.197825       21.762567       24.011810
  O           27.377755       10.521229        4.734376
  S           28.056120       11.313131        3.735721
  O           29.420313       11.033386        3.331468
  C           27.026430       11.395722        2.283165
  C           26.882959       12.885506        1.983399
  C           26.787424       13.583998        3.340153
  C           27.928076       13.037577        4.171139
  H           27.490793       10.845253        1.459848
  H           26.057054       10.953837        2.526572
  H           26.002440       13.085800        1.363666
  H           27.766590       13.248081        1.443922
  H           25.821177       13.334528        3.809761
  H           26.840066       14.669587        3.246219
  H           27.755336       13.132669        5.247809
  H           28.873957       13.519586        3.904536
  O           22.316700        1.416575       26.096042
  S           22.924143        1.701397       27.374513
  O           24.104670        0.997560       27.836757
  C           23.215331        3.456415       27.484608
  C           22.546542        3.888065       28.787029
  C           21.266873        3.059175       28.901863
  C           21.675295        1.624801       28.645030
  H           24.289713        3.661709       27.476945
  H           22.738490        3.935875       26.626156
  H           22.333021        4.962262       28.790117
  H           23.203693        3.670775       29.638051
  H           20.547927        3.393059       28.135026
  H           20.790200        3.175086       29.876259
  H           20.844055        0.998715       28.305682
  H           22.132521        1.181473       29.535257
  O            2.716247       29.281729       14.803587
  S            4.042504       29.769391       14.507225
  O            4.459576       31.115057       14.850640
  C            5.230354       28.610558       15.157700
  C            6.135154       28.266193       13.977594
  C            5.227182       28.211604       12.748608
  C            4.400740       29.478840       12.784743
  H            5.779629       29.060495       15.989778
  H            4.689934       27.725865       15.503335
  H            6.655999       27.316009       14.136877
  H            6.891785       29.048770       13.842019
  H            4.571474       27.327708       12.820549
  H            5.797008       28.127330       11.822165
  H            3.464464       29.393756       12.224164
  H            4.976327       30.333483       12.415438
  O           38.180787       27.759345       25.684379
  S           38.456144       26.576071       26.464533
  O           39.407520       26.582922       27.558853
  C           36.909071       25.908253       27.045555
  C           36.915522       24.448303       26.600131
  C           37.580363       24.427694       25.223410
  C           38.855383       25.230563       25.364572
  H           36.836441       26.014836       28.131771
  H           36.097370       26.457706       26.562395
  H           35.901290       24.036519       26.564527
  H           37.502569       23.842933       27.301703
  H           36.909792       24.904783       24.489161
  H           37.778930       23.411471       24.879955
  H           39.215796       25.630035       24.411354
  H           39.643242       24.636030       25.837764
  O            3.492878        3.136194       19.281360
  S            4.067119        3.219164       17.959254
  O            3.248826        3.416086       16.778442
  C            5.360254        4.445699       17.979553
  C            6.590712        3.733389       17.424135
  C            6.534160        2.304521       17.965373
  C            5.129303        1.811652       17.693973
  H            5.069014        5.310857       17.376907
  H            5.523905        4.751800       19.015758
  H            7.514699        4.240943       17.721012
  H            6.552005        3.713822       16.328043
  H            6.728959        2.319412       19.050836
  H            7.284193        1.661571       17.502592
  H            4.828363        0.994309       18.356910
  H            5.016914        1.501526       16.650282
  O            8.384912       37.772426       15.764696
  S            9.076592       37.497600       17.001891
  O            8.554263       37.927198       18.284590
  C            9.432698       35.752693       17.075963
  C           10.934637       35.665437       17.333772
  C           11.569657       36.800933       16.530530
  C           10.768568       38.042122       16.859021
  H            8.843372       35.280727       17.867445
  H            9.178734       35.311317       16.109066
  H           11.335054       34.689650       17.038804
  H           11.142606       35.808386       18.401299
  H           11.492190       36.571984       15.454434
  H           12.626941       36.928242       16.767263
  H           10.841946       38.814147       16.086562
  H           11.067603       38.457647       17.826501
  O            9.810672        5.902262       15.027126
  S           10.960917        5.030044       15.054913
  O           11.692857        4.764401       16.278186
  C           10.513967        3.479260       14.298405
  C           11.566154        3.248152       13.217020
  C           11.869321        4.622478       12.619427
  C           12.114089        5.543139       13.795298
  H           10.501943        2.683258       15.048563
  H            9.520730        3.589145       13.856133
  H           11.209392        2.546802       12.455226
  H           12.477919        2.830603       13.661584
  H           10.995815        4.967796       12.041375
  H           12.724823        4.595012       11.943067
  H           11.948399        6.597681       13.553248
  H           13.124527        5.409850       14.194483
  O            5.181532       36.391127        7.016152
  S            6.273262       35.475493        6.783045
  O            6.321862       34.621971        5.611790
  C            7.805354       36.377940        6.906673
  C            8.639715       35.604566        7.924335
  C            7.659770       35.111456        8.989393
  C            6.513968       34.470818        8.236451
  H            8.288286       36.437244        5.927000
  H            7.580800       37.382878        7.272563
  H            9.424603       36.233100        8.358380
  H            9.121764       34.745626        7.441478
  H            7.296039       35.972569        9.574701
  H            8.127755       34.412301        9.683852
  H            5.587035       34.437679        8.817654
  H            6.778087       33.461944        7.904015
  O            8.203838       12.792074       34.866380
  S            9.641271       12.718619       34.752407
  O           10.464504       13.907983       34.650425
  C           10.262396       11.695163       36.072915
  C           11.114756       10.633006       35.383565
  C           10.390998       10.287333       34.081841
  C           10.066217       11.609954       33.422000
  H           10.837267       12.299844       36.780293
  H            9.409305       11.238519       36.580765
  H           11.245416        9.750640       36.019063
  H           12.108924       11.036980       35.156113
  H            9.462031        9.741261       34.316844
  H           10.995277        9.650516       33.434222
  H            9.229872       11.542126       32.719130
  H           10.944050       12.020910       32.913447
  O            9.393806       36.213412       30.085402
  S            9.503062       34.828788       30.479711
  O            9.325171       33.745145       29.532730
  C           11.051145       34.603812       31.334008
  C           10.678748       33.955425       32.664728
  C            9.361662       34.600506       33.097113
  C            8.451197       34.537902       31.889912
  H           11.723895       33.980606       30.737752
  H           11.498819       35.587824       31.493721
  H           11.464181       34.100650       33.414063
  H           10.533762       32.876405       32.530578
  H            9.547074       35.650364       33.379638
  H            8.923345       34.097255       33.960083
  H            7.655747       35.289353       31.915994
  H            8.014016       33.540536       31.779306
  O            1.040121       25.670192       19.279040
  S            1.834080       24.893022       18.356957
  O            1.593521       24.918440       16.927207
  C            3.555896       25.238997       18.661344
  C            4.203361       23.872827       18.871745
  C            3.182301       23.033217       19.640050
  C            1.870438       23.196018       18.903360
  H            3.987017       25.781345       17.814886
  H            3.626974       25.845707       19.567463
  H            5.148596       23.958109       19.418333
  H            4.413195       23.402176       17.903366
  H            3.092073       23.422389       20.668060
  H            3.480745       21.986045       19.706837
  H            0.998952       22.994567       19.534255
  H            1.838068       22.558907       18.013899
  O            9.394181       36.525249       14.259397
  S            9.733874       37.015557       12.944556
  O            8.926369       36.709888       11.779566
  C            9.967633       38.779935       13.041142
  C           11.348278       39.030166       12.440222
  C           12.224920       37.860890       12.889770
  C           11.432835       36.606896       12.589270
  H            9.172860       39.296174       12.494945
  H            9.944601       39.069977       14.094492
  H           11.758769       39.991309       12.767637
  H           11.285719       39.043821       11.345143
  H           12.411194       37.942481       13.973765
  H           13.192683       37.857664       12.386257
  H           11.740171       35.751655       13.199357
  H           11.497897       36.346398       11.528135
  O           21.159258       15.496172       32.806249
  S           20.907858       16.761968       33.453672
  O           20.315708       16.843658       34.774802
  C           22.412448       17.717358       33.432703
  C           22.024728       19.053342       32.804435
  C           21.009948       18.727963       31.708008
  C           19.987184       17.812636       32.345450
  H           22.802379       17.829264       34.448543
  H           23.141110       17.192653       32.809858
  H           22.899683       19.575140       32.402339
  H           21.559130       19.702292       33.556354
  H           21.522666       18.208212       30.881341
  H           20.547539       19.627121       31.298383
  H           19.451884       17.197080       31.615625
  H           19.270303       18.382338       32.945133
  O            5.205499       17.102268       33.742331
  S            4.321595       16.900748       32.618630
  O            4.824936       16.663503       31.279577
  C            3.158159       15.616709       33.036557
  C            1.783605       16.228164       32.778439
  C            1.882691       17.691866       33.209206
  C            3.137900       18.233078       32.559790
  H            3.342642       14.727511       32.426809
  H            3.282640       15.374820       34.094949
  H            0.999932       15.697592       33.329665
  H            1.541933       16.174315       31.709798
  H            1.970707       17.742007       34.307449
  H            0.999807       18.264068       32.920761
  H            3.543359       19.107740       33.078123
  H            2.961784       18.475956       31.507130
  O           33.186705       17.259090        9.137225
  S           32.342549       16.104001        8.942884
  O           31.773687       15.373123       10.058642
  C           31.037479       16.540613        7.810116
  C           31.098574       15.484889        6.709383
  C           32.582065       15.188239        6.487907
  C           33.169116       14.951121        7.862442
  H           30.074740       16.549708        8.329299
  H           31.252942       17.533532        7.407762
  H           30.615937       15.836098        5.791117
  H           30.584889       14.571710        7.034241
  H           33.060619       16.062473        6.015573
  H           32.734357       14.331188        5.830358
  H           34.249571       15.122256        7.900271
  H           32.942253       13.940781        8.217189
  O            3.067422       14.325964       27.696225
  S            4.216534       13.654319       28.255721
  O            4.380781       13.477317       29.685543
  C            4.395646       12.073728       27.451575
  C            5.833531       12.050205       26.939880
  C            6.139739       13.472403       26.469359
  C            5.701397       14.386320       27.593108
  H            4.189046       11.265190       28.158740
  H            3.687341       12.031567       26.620475
  H            5.958464       11.322107       26.131323
  H            6.517977       11.775558       27.751917
  H            5.558488       13.685990       25.556710
  H            7.195471       13.605587       26.228961
  H            5.489356       15.405828       27.255851
  H            6.447330       14.409484       28.393824
  O           23.017474       15.368459       22.057308
  S           22.788949       13.968583       21.787634
  O           22.560938       13.473446       20.443927
  C           24.102417       13.025674       22.537785
  C           23.398142       11.986319       23.405910
  C           22.179219       12.689068       24.004382
  C           21.484168       13.374481       22.847959
  H           24.729295       12.571209       21.765137
  H           24.700828       13.703020       23.152038
  H           24.063328       11.598923       24.184981
  H           23.069773       11.140534       22.789370
  H           22.516712       13.436224       24.742119
  H           21.516037       11.991716       24.518182
  H           20.856950       14.213962       23.164140
  H           20.885263       12.661985       22.271971
  O           19.221821       33.998070       28.215552
  S           18.021693       33.324411       28.651988
  O           18.008670       32.455520       29.812832
  C           16.722384       34.533216       28.818073
  C           15.568636       33.992804       27.977405
  C           16.206441       33.346118       26.747444
  C           17.307438       32.449984       27.271800
  H           16.452720       34.654842       29.871158
  H           17.085292       35.481779       28.414680
  H           14.870126       34.788794       27.698153
  H           15.011575       33.236522       28.543992
  H           16.631558       34.133395       26.102563
  H           15.479689       32.788569       26.154932
  H           18.082169       32.245026       26.526224
  H           16.899559       31.507200       27.649810
  O           16.467273        7.686006       30.399635
  S           16.560439        6.307438       30.818527
  O           15.539791        5.684215       31.638631
  C           16.844561        5.296090       29.378579
  C           18.090396        4.478170       29.708432
  C           19.012346        5.408723       30.497025
  C           18.151909        6.032515       31.574398
  H           15.971128        4.668125       29.180398
  H           17.028466        5.957285       28.528168
  H           18.575400        4.104320       28.800408
  H           17.820787        3.614524       30.328695
  H           19.403229        6.189294       29.822993
  H           19.866271        4.877229       30.919432
  H           18.552114        6.982069       31.943562
  H           18.008382        5.341605       32.411144
  O           38.674662       23.158504       30.620863
  S           39.902464       23.903527       30.769331
  O           41.201987       23.280783       30.607685
  C           39.818029       25.347513       29.727807
  C           40.118356       26.522595       30.654568
  C           39.452603       26.190387       31.990312
  C           39.872661       24.775444       32.324507
  H           40.538532       25.264612       28.908965
  H           38.804347       25.419535       29.325982
  H           39.743592       27.464635       30.240307
  H           41.201351       26.622404       30.797608
  H           38.357238       26.244402       31.873449
  H           39.737416       26.892318       32.775344
  H           39.182391       24.276576       33.012082
  H           40.885969       24.754089       32.737849
  O           17.542500       36.813169       24.069518
  S           18.331007       37.647144       24.945498
  O           19.482794       37.134058       25.661620
  C           18.809820       39.113210       24.051973
  C           18.356618       40.277423       24.928965
  C           17.024145       39.850556       25.545487
  C           17.249880       38.462862       26.105442
  H           19.889995       39.113927       23.879569
  H           18.280186       39.118404       23.096117
  H           18.254996       41.200098       24.347722
  H           19.089813       40.457320       25.724806
  H           16.252311       39.822099       24.758175
  H           16.687499       40.546734       26.314971
  H           16.323610       37.889141       26.210169
  H           17.767793       38.507747       27.068692
  O           11.728150       36.982587        7.647206
  S           12.068294       35.926624        8.571243
  O           11.099409       35.379103        9.500858
  C           12.812136       34.590620        7.655388
  C           14.141981       34.322748        8.355142
  C           14.680317       35.689125        8.780593
  C           13.533484       36.390653        9.475453
  H           12.153006       33.717675        7.659394
  H           12.974997       34.929522        6.629317
  H           14.843050       33.800563        7.695350
  H           13.981770       33.697568        9.242150
  H           14.984909       36.254616        7.884020
  H           15.552772       35.601305        9.429599
  H           13.636205       37.480399        9.474037
  H           13.418473       36.031551       10.503031
  O           17.557474        2.832505       26.238671
  S           17.728103        3.474635       24.956815
  O           18.271942        2.769918       23.812127
  C           16.182108        4.229964       24.491653
  C           16.527599        5.685590       24.188851
  C           17.592027        6.090103       25.209225
  C           18.634799        4.993755       25.180149
  H           15.754119        3.712345       23.628290
  H           15.499627        4.162094       25.342425
  H           15.642990        6.328183       24.252422
  H           16.937397        5.772519       23.175042
  H           17.131623        6.150683       26.209605
  H           18.025251        7.065620       24.983872
  H           19.221981        4.938832       26.102267
  H           19.304184        5.111385       24.322135
  O           32.027032       35.339690        5.218774
  S           31.527143       34.569750        6.333181
  O           30.714283       35.166880        7.375003
  C           30.688927       33.131180        5.696854
  C           31.337177       31.947276        6.409625
  C           32.822448       32.288346        6.533883
  C           32.881773       33.693488        7.092683
  H           29.615298       33.202335        5.893721
  H           30.867483       33.080791        4.619924
  H           31.182353       31.014297        5.857284
  H           30.902421       31.825334        7.409334
  H           33.287165       32.256657        5.534166
  H           33.353689       31.578273        7.169241
  H           33.822969       34.203809        6.865037
  H           32.713659       33.693189        8.174273
  O           28.766876       33.789897       35.859706
  S           29.068854       35.194192       36.005870
  O           29.667364       35.728491       37.213764
  C           30.034551       35.714883       34.601124
  C           29.288428       36.918583       34.031644
  C           27.799555       36.605783       34.184005
  C           27.614299       36.148634       35.614702
  H           31.052850       35.962697       34.914422
  H           30.056263       34.894803       33.879185
  H           29.557971       37.097842       32.985359
  H           29.535733       37.820725       34.604602
  H           27.525536       35.795816       33.487394
  H           27.174126       37.468874       33.951599
  H           26.721436       35.530754       35.752976
  H           27.582376       37.002638       36.298630
  O           11.561903       16.096022       13.064872
  S           10.560355       16.442381       14.045451
  O           10.801288       16.306890       15.468931
  C            9.987045       18.096277       13.709385
  C            8.468593       17.976689       13.609870
  C            8.192675       16.642718       12.915471
  C            9.034134       15.614302       13.639699
  H           10.302749       18.774384       14.507509
  H           10.414132       18.418371       12.756467
  H            8.036687       18.816860       13.055731
  H            8.024760       17.968442       14.612987
  H            8.502593       16.712209       11.859288
  H            7.133247       16.383150       12.933864
  H            9.246640       14.730697       13.029631
  H            8.560399       15.310154       14.578406
  O           34.911883       32.820118       39.468027
  S           34.683503       34.052726       38.751703
  O           35.735369       35.030971       38.553424
  C           33.949063       33.663555       37.174952
  C           32.681287       34.511031       37.108419
  C           32.104927       34.524159       38.524553
  C           33.258024       34.873427       39.440294
  H           34.649061       33.892144       36.366095
  H           33.704672       32.598476       37.166003
  H           31.965966       34.104571       36.385503
  H           32.928183       35.534903       36.801780
  H           31.716430       33.521012       38.767790
  H           31.281004       35.232149       38.624565
  H           33.102181       34.536711       40.470068
  H           33.455805       35.949932       39.429320
  O           19.743463       23.415260        4.357338
  S           20.258331       24.698523        3.941710
  O           20.295145       25.095292        2.547465
  C           19.438855       25.969795        4.884752
  C           20.565746       26.794204        5.501492
  C           21.664745       25.798674        5.874213
  C           21.877759       24.935633        4.649474
  H           18.792111       26.564846        4.233495
  H           18.841516       25.486608        5.661872
  H           20.218113       27.356846        6.374467
  H           20.952497       27.512065        4.767735
  H           21.322423       25.179975        6.720633
  H           22.584257       26.299681        6.180139
  H           22.321723       23.963188        4.884733
  H           22.493331       25.453086        3.906901
  O            6.136616        3.792471        6.383860
  S            7.134640        4.665954        5.813267
  O            8.207895        4.162281        4.978319
  C            6.304733        5.989390        4.954913
  C            6.898646        7.270847        5.533734
  C            7.116779        7.002390        7.023079
  C            7.836927        5.673949        7.105722
  H            6.468526        5.900997        3.877018
  H            5.236624        5.922447        5.175962
  H            6.236242        8.127736        5.371065
  H            7.860565        7.490356        5.054330
  H            6.138108        6.936511        7.527324
  H            7.684586        7.800199        7.503908
  H            7.705252        5.176613        8.071857
  H            8.904158        5.792135        6.893232
  O           15.291848       28.150248       21.952249
  S           14.599130       27.388947       20.939746
  O           14.395424       27.902501       19.599050
  C           15.346966       25.774420       20.834662
  C           14.191360       24.790987       20.999992
  C           13.250349       25.411875       22.032850
  C           13.031302       26.842282       21.589955
  H           15.861934       25.658902       19.876557
  H           16.061308       25.675217       21.655682
  H           14.547264       23.805681       21.319372
  H           13.662339       24.667623       20.046987
  H           13.733900       25.390369       23.023868
  H           12.309813       24.864683       22.110780
  H           12.723841       27.500188       22.408935
  H           12.298016       26.894151       20.778968
  O           18.678979        9.753224       38.263415
  S           17.938938        8.590566       38.693723
  O           16.672783        8.702148       39.391651
  C           17.737813        7.499221       37.298906
  C           18.268078        6.148639       37.772877
  C           19.474804        6.454468       38.660616
  C           19.018729        7.523777       39.629518
  H           16.685791        7.455941       37.002467
  H           18.341572        7.885209       36.473868
  H           18.540972        5.507282       36.928075
  H           17.501575        5.627886       38.359895
  H           20.299072        6.835113       38.034443
  H           19.836170        5.566026       39.180410
  H           19.847547        8.109030       40.040175
  H           18.432646        7.089730       40.445734
  O           32.315656       31.031732       26.285893
  S           32.623625       29.854584       27.063118
  O           33.473537       29.910860       28.236652
  C           31.095466       29.043775       27.492445
  C           31.265365       27.602349       27.019872
  C           32.045130       27.675505       25.706702
  C           33.229721       28.578118       25.975468
  H           30.921074       29.113870       28.570023
  H           30.284042       29.536457       26.951100
  H           30.297019       27.108222       26.887040
  H           31.839864       27.029125       27.757887
  H           31.401536       28.114856       24.926216
  H           32.358899       26.689351       25.361524
  H           33.634935       29.032534       25.065848
  H           34.022203       28.038810       26.503881
  O           27.384783       17.130920       38.255288
  S           27.724300       16.071721       39.175846
  O           26.965990       15.837739       40.389485
  C           27.843603       14.545186       38.263455
  C           29.219704       13.982953       38.610063
  C           30.157486       15.186623       38.707758
  C           29.453757       16.192081       39.593207
  H           27.031131       13.870698       38.548858
  H           27.776951       14.778473       37.197934
  H           29.560589       13.266190       37.855379
  H           29.182755       13.465475       39.576578
  H           30.312107       15.609142       37.700797
  H           31.135341       14.912354       39.106099
  H           29.799814       17.218005       39.432505
  H           29.560661       15.927158       40.649847
  O           25.377362       24.250517       18.203710
  S           24.029024       23.784127       17.982201
  O           23.652507       22.399252       18.189701
  C           22.910792       24.831589       18.892904
  C           21.889525       25.309882       17.864240
  C           22.667318       25.535344       16.567318
  C           23.496304       24.286940       16.356443
  H           22.450346       24.270426       19.711186
  H           23.481422       25.673141       19.293368
  H           21.385260       26.223654       18.196262
  H           21.124973       24.539359       17.705952
  H           23.324731       26.412904       16.686051
  H           22.005792       25.728501       15.721638
  H           24.370328       24.457608       15.720004
  H           22.888202       23.477667       15.940044
  O           36.066914       21.525130       10.882852
  S           37.004791       20.629436       10.248249
  O           38.370141       21.025227        9.962121
  C           37.023926       19.094709       11.154475
  C           36.758320       18.014229       10.109526
  C           35.741509       18.608069        9.134205
  C           36.272465       19.974901        8.759967
  H           37.987216       18.964920       11.656201
  H           36.220001       19.125164       11.894053
  H           36.384497       17.094281       10.571534
  H           37.684542       17.772265        9.573928
  H           34.766299       18.704336        9.640266
  H           35.598782       17.976046        8.256552
  H           35.490525       20.654133        8.405971
  H           37.062643       19.896266        8.006617
  O            1.659770       23.315297       36.465408
  S            1.847713       24.051553       37.693091
  O            0.999992       25.171478       38.053422
  C            1.885342       22.893630       39.047638
  C            3.182610       23.197245       39.792497
  C            4.216207       23.543956       38.720457
  C            3.552782       24.559048       37.815108
  H            1.000386       23.021369       39.677746
  H            1.903905       21.883062       38.632179
  H            3.503117       22.345084       40.401263
  H            3.041708       24.056422       40.459777
  H            4.468082       22.633638       38.151001
  H            5.140046       23.931069       39.152619
  H            3.997796       24.594641       36.815711
  H            3.571957       25.557143       38.264038
  O            2.700190       22.458386       12.299118
  S            2.411985       23.141583       13.537981
  O            1.076337       23.177677       14.101401
  C            3.550327       22.563217       14.781633
  C            4.191913       23.826391       15.349663
  C            4.373373       24.778621       14.167238
  C            3.042514       24.807093       13.447374
  H            3.016725       21.985707       15.542061
  H            4.298493       21.934041       14.293181
  H            5.146192       23.604816       15.839312
  H            3.528008       24.284607       16.093013
  H            5.158165       24.383990       13.500328
  H            4.680635       25.775129       14.487647
  H            3.130767       25.109874       12.399216
  H            2.331600       25.460897       13.962390
  O           39.095865       31.015609       20.842052
  S           39.920534       30.360998       19.854121
  O           41.194555       30.910343       19.432471
  C           40.155468       28.664275       20.347006
  C           39.726219       27.837393       19.137911
  C           38.525755       28.564474       18.531249
  C           38.936757       30.015670       18.407528
  H           41.200011       28.492762       20.622710
  H           39.506726       28.464853       21.203490
  H           39.473493       26.811028       19.424626
  H           40.539831       27.793455       18.403469
  H           37.662564       28.470280       19.211271
  H           38.236285       28.143124       17.567521
  H           38.082781       30.699473       18.372332
  H           39.570747       30.170515       17.528790
  O           33.292505       11.217488       12.874824
  S           32.784001       10.564968       11.691506
  O           32.347772        9.182141       11.705489
  C           31.487758       11.574784       11.000837
  C           31.886819       11.789444        9.543246
  C           33.408203       11.941635        9.537891
  C           33.945089       10.787653       10.356596
  H           30.522477       11.070156       11.101257
  H           31.469770       12.524009       11.541992
  H           31.391889       12.669282        9.118476
  H           31.601836       10.917182        8.942210
  H           33.678817       12.901082       10.009728
  H           33.815837       11.943030        8.525995
  H           34.941777       10.981770       10.765289
  H           33.959612        9.863577        9.770103
  O           35.000778       28.564880        4.912494
  S           35.815712       28.833321        6.073709
  O           35.483998       28.304580        7.382563
  C           37.504680       28.412766        5.689626
  C           38.310745       29.664994        6.024413
  C           37.439008       30.852657        5.615351
  C           36.073300       30.592279        6.213051
  H           37.819079       27.543156        6.273948
  H           37.565553       28.186004        4.622352
  H           39.273448       29.672429        5.502256
  H           38.509583       29.708078        7.102331
  H           37.371553       30.891698        4.515203
  H           37.854654       31.802003        5.956056
  H           35.270920       31.123432        5.691359
  H           36.055225       30.848333        7.277104
  O            5.213754       23.174674       31.248407
  S            6.520841       23.540819       30.756410
  O            6.828964       24.891836       30.329194
  C            7.740744       23.016398       31.945452
  C            8.733981       22.174365       31.148984
  C            7.905542       21.393489       30.128337
  C            6.998133       22.407095       29.465456
  H            8.209697       23.886705       32.413585
  H            7.239261       22.410519       32.704151
  H            9.304919       21.505409       31.801692
  H            9.445060       22.825264       30.625536
  H            7.305311       20.632102       30.654085
  H            8.533294       20.876794       29.400976
  H            6.104036       21.955260       29.024395
  H            7.537989       22.978093       28.703473
  O           10.368527       37.969586       24.455564
  S           11.618856       38.208192       25.136992
  O           11.733859       38.126027       26.580157
  C           12.872595       37.180466       24.396102
  C           13.999571       38.138954       24.020433
  C           13.322211       39.423432       23.541789
  C           12.291536       39.768117       24.594927
  H           13.195266       36.410453       25.102829
  H           12.447515       36.712967       23.504501
  H           14.646737       37.711819       23.246979
  H           14.619232       38.354897       24.899460
  H           12.828466       39.234597       22.573823
  H           14.037855       40.233900       23.396546
  H           11.485799       40.402310       24.211929
  H           12.759809       40.247680       25.460283
  O            7.655116        9.198621       17.009879
  S            8.110595        9.918001       15.843847
  O            8.645341        9.235311       14.681659
  C            6.816127       11.025992       15.320674
  C            7.477983       12.399145       15.241330
  C            8.463000       12.463455       16.408980
  C            9.263700       11.180667       16.349539
  H            6.407468       10.701409       14.359350
  H            6.031301       11.016943       16.081046
  H            6.736997       13.203931       15.293852
  H            8.022220       12.500923       14.294362
  H            7.900421       12.517124       17.356094
  H            9.105448       13.343450       16.354499
  H            9.706525       10.909072       17.312992
  H           10.046547       11.241593       15.586952
  O           36.623868       34.988739       30.687242
  S           36.149888       34.171342       31.778940
  O           36.998310       33.190258       32.427288
  C           35.444253       35.238237       33.020235
  C           34.041724       34.687840       33.264933
  C           33.522263       34.229018       31.902053
  C           34.623553       33.383791       31.299601
  H           36.062288       35.227182       33.922682
  H           35.397899       36.251283       32.613062
  H           33.387741       35.443981       33.712210
  H           34.087066       33.831581       33.949085
  H           33.331795       35.112454       31.269863
  H           32.587098       33.673617       31.986295
  H           34.567618       33.325009       30.208035
  H           34.621330       32.375132       31.724693
  O           17.316845       24.368918       14.533901
  S           17.513380       23.563252       15.715796
  O           16.544841       23.534809       16.794603
  C           17.865934       21.891158       15.209035
  C           19.170144       21.529843       15.915002
  C           20.023787       22.798300       15.904495
  C           19.123762       23.910116       16.398480
  H           17.040589       21.230191       15.489087
  H           17.997102       21.883929       14.124165
  H           19.677936       20.697716       15.415791
  H           18.967589       21.230812       16.950788
  H           20.353219       23.005750       14.872584
  H           20.916333       22.696119       16.523382
  H           19.454053       24.902145       16.074619
  H           19.035006       23.887905       17.489227
  O           30.220507        5.774685       38.041052
  S           30.626694        4.792222       39.017974
  O           31.904801        4.869947       39.698491
  C           29.331998        4.632619       40.232589
  C           29.013774        3.140471       40.278732
  C           29.126848        2.637834       38.839159
  C           30.447019        3.162322       38.317372
  H           29.670926        5.019041       41.198149
  H           28.466864        5.203283       39.886055
  H           28.016715        2.956779       40.693014
  H           29.744125        2.618798       40.909402
  H           28.293087        3.047780       38.244864
  H           29.072762        1.549862       38.780072
  H           30.478935        3.226488       37.225143
  H           31.281458        2.551608       38.676312
  O           14.892635       33.172650        4.969291
  S           15.772181       33.551682        3.888858
  O           15.456201       33.259754        2.504071
  C           16.145127       35.287650        4.044824
  C           17.669385       35.367884        4.034889
  C           18.163589       34.146643        4.810861
  C           17.417460       32.960358        4.239706
  H           15.690533       35.846540        3.221728
  H           15.744372       35.638305        4.999097
  H           18.023678       36.301772        4.484144
  H           18.042227       35.324918        3.004140
  H           17.918739       34.271604        5.878959
  H           19.244253       34.020690        4.730849
  H           17.363908       32.115604        4.933696
  H           17.862956       32.634533        3.294469
  O            3.577522       30.694773       28.265158
  S            3.895804       29.341609       27.874975
  O            4.115298       28.292949       28.852131
  C            2.676945       28.790442       26.697011
  C            3.480329       28.305365       25.493194
  C            4.664943       29.262835       25.359996
  C            5.272510       29.368474       26.741988
  H            2.059466       28.000728       27.134702
  H            2.052007       29.645399       26.427382
  H            2.869412       28.290575       24.584314
  H            3.847884       27.287237       25.671010
  H            4.299135       30.249228       25.028916
  H            5.391856       28.914790       24.624767
  H            5.848523       30.288072       26.885685
  H            5.901647       28.500108       26.961592
  O           36.930618       10.164989        8.249799
  S           38.270507        9.887260        8.710414
  O           38.525629        9.063685        9.876320
  C           39.222324        9.261801        7.339340
  C           40.459866       10.153135        7.276776
  C           39.984982       11.563620        7.627229
  C           39.158116       11.423711        8.886958
  H           39.471576        8.209253        7.502182
  H           38.622617        9.366344        6.431804
  H           40.927572       10.119222        6.287028
  H           41.201393        9.820514        8.013527
  H           39.361701       11.951860        6.804313
  H           40.818602       12.253522        7.765842
  H           38.447393       12.244768        9.024211
  H           39.799367       11.338409        9.769920
  O           11.463645       26.414163       38.554399
  S           12.389231       27.187246       37.760526
  O           12.628636       28.594600       38.014964
  C           13.952226       26.331455       37.719699
  C           14.289503       26.192958       36.237484
  C           12.963832       25.926325       35.523829
  C           11.998178       26.973968       36.033885
  H           14.707729       26.899432       38.270260
  H           13.815783       25.349732       38.179920
  H           15.009926       25.386294       36.064906
  H           14.728689       27.125503       35.862284
  H           12.605337       24.917504       35.788707
  H           13.067771       25.967061       34.438639
  H           10.950306       26.675615       35.928771
  H           12.160994       27.934220       35.534377
  O           33.102995        3.095885       10.500635
  S           33.312379        4.418256       11.041091
  O           33.398098        4.658891       12.468483
  C           34.736834        5.136020       10.245639
  C           34.253575        6.478812        9.704093
  C           32.822778        6.249410        9.216244
  C           32.108827        5.532791       10.341824
  H           35.555383        5.243466       10.963227
  H           35.041045        4.475508        9.429931
  H           34.901070        6.841700        8.898760
  H           34.254095        7.229765       10.503698
  H           32.843977        5.614936        8.314361
  H           32.325419        7.183912        8.952728
  H           31.237049        4.965272       10.001198
  H           31.809390        6.234717       11.126514
  O           17.733199       28.036797       25.511687
  S           16.847805       28.446874       24.447491
  O           17.278805       28.486872       23.063533
  C           15.347045       27.491843       24.559902
  C           14.222579       28.523480       24.594527
  C           14.747799       29.695874       25.423645
  C           16.117759       30.018593       24.867530
  H           15.267063       26.813051       23.705886
  H           15.376339       26.918525       25.489768
  H           13.307289       28.103170       25.024741
  H           13.993209       28.865063       23.577664
  H           14.828977       29.386593       26.479180
  H           14.081196       30.558387       25.381081
  H           16.757747       30.540551       25.585913
  H           16.039402       30.606060       23.947289
  O            8.290293       29.663532       17.992409
  S            8.751152       28.295893       18.034509
  O           10.159760       27.963449       18.123974
  C            7.870577       27.441210       19.327221
  C            7.273843       26.208996       18.652344
  C            6.847546       26.655936       17.253660
  C            8.033598       27.395138       16.673092
  H            8.553347       27.183587       20.142055
  H            7.081972       28.101271       19.696845
  H            6.428737       25.810037       19.223420
  H            8.031232       25.419578       18.571843
  H            5.981061       27.333154       17.337207
  H            6.550814       25.813378       16.627445
  H            7.753676       28.093138       15.877768
  H            8.788849       26.695269       16.301771
