        4267
  Built with Packmol                                             
  O           17.727942        7.439806       35.108864
  C           17.130395        8.503656       35.101173
  O           15.788078        8.643849       35.288610
  C           15.466776        9.973165       34.961831
  C           16.755046       10.695589       35.202378
  O           17.733090        9.714922       34.888817
  H           15.161527       10.006919       33.909888
  H           14.656546       10.354919       35.583355
  H           16.871364       10.991636       36.248240
  H           16.875581       11.578535       34.564900
  O           31.723627       21.470424        2.143126
  C           31.300621       22.614742        2.165533
  O           32.035384       23.722246        1.865268
  C           31.268445       24.837073        2.247452
  C           29.866921       24.317720        2.173941
  O           30.017653       22.946515        2.511103
  H           31.553712       25.120410        3.266885
  H           31.430890       25.684005        1.580505
  H           29.453290       24.392038        1.164790
  H           29.189087       24.815603        2.876190
  O           25.093478       20.819101       25.418892
  C           25.402178       20.379576       24.323254
  O           24.889811       20.813936       23.137753
  C           25.307188       19.900702       22.153425
  C           26.561812       19.331815       22.737963
  O           26.307763       19.369710       24.134610
  H           24.525187       19.142908       22.030452
  H           25.483263       20.393595       21.197101
  H           27.435312       19.951470       22.518817
  H           26.759492       18.305451       22.409329
  O           34.211739        7.867609       18.962595
  C           34.801142        8.285085       19.946067
  O           36.137116        8.547555       19.999752
  C           36.456505        8.765205       21.351684
  C           35.157024        9.230547       21.929788
  O           34.194838        8.538454       21.147608
  H           36.788287        7.815462       21.786206
  H           37.247637        9.506963       21.463063
  H           35.011741       10.306396       21.801559
  H           35.046087        8.978246       22.990230
  O           34.824522       22.118853       37.208740
  C           33.645962       22.134423       36.893060
  O           32.789891       21.083047       37.028520
  C           31.616065       21.419807       36.331507
  C           31.631629       22.915971       36.357014
  O           33.018690       23.220010       36.342122
  H           31.691320       21.020713       35.313685
  H           30.729931       21.007402       36.814403
  H           31.190022       23.316193       37.273422
  H           31.129083       23.363566       35.492371
  O           24.301935       27.471623        6.989618
  C           23.947865       27.699396        5.844343
  O           24.775993       28.097358        4.838147
  C           23.956000       28.487519        3.764608
  C           22.705983       27.698249        3.996796
  O           22.652456       27.596188        5.412183
  H           23.784563       29.567607        3.834736
  H           24.416774       28.258646        2.803461
  H           22.768818       26.693685        3.570296
  H           21.808763       28.195251        3.611459
  O           32.017520       31.492319       35.350947
  C           31.360191       30.648724       35.938455
  O           30.146100       30.184321       35.529905
  C           29.621331       29.424983       36.590624
  C           30.849478       28.980263       37.320884
  O           31.752615       30.055401       37.108698
  H           28.987242       30.076673       37.202287
  H           29.028866       28.584622       36.228299
  H           31.275112       28.068967       36.892663
  H           30.677733       28.826125       38.391979
  O           25.096197        9.108331       20.994044
  C           25.676045       10.179193       21.071054
  O           25.184988       11.364950       20.613403
  C           26.241396       12.291485       20.664728
  C           27.119273       11.735788       21.741729
  O           26.919250       10.334815       21.623975
  H           26.738714       12.303837       19.688294
  H           25.884683       13.294705       20.898836
  H           26.802413       12.057457       22.737284
  H           28.176656       11.987639       21.603847
  O           17.882543       20.065602       17.991605
  C           18.317744       19.739912       19.084046
  O           19.613439       19.402336       19.336660
  C           19.648744       18.860079       20.633507
  C           18.464052       19.494570       21.291782
  O           17.551400       19.656974       20.216008
  H           19.547894       17.771600       20.556417
  H           20.582186       19.099081       21.143471
  H           18.701897       20.477298       21.707324
  H           18.026374       18.869762       22.078264
  O           37.956153       29.568632       36.376376
  C           37.588454       30.691398       36.681493
  O           36.389925       30.988248       37.257695
  C           36.252847       32.387069       37.217546
  C           37.672270       32.859499       37.179501
  O           38.334474       31.820773       36.473006
  H           35.701231       32.654881       36.309308
  H           35.715296       32.763079       38.088267
  H           38.105457       32.940955       38.179858
  H           37.790561       33.816466       36.659194
  O           29.273885        8.777792       35.341688
  C           30.342073        8.197924       35.233851
  O           30.516112        6.995152       34.617695
  C           31.819159        6.564374       34.923638
  C           32.540161        7.848398       35.189796
  O           31.523499        8.677299       35.733783
  H           31.772225        5.922534       35.810620
  H           32.261391        6.005348       34.098762
  H           32.917993        8.305760       34.271612
  H           33.366939        7.735247       35.899821
  O           32.747729        2.076518       24.140513
  C           33.868735        2.278704       24.577966
  O           34.352753        1.768087       25.744841
  C           35.566642        2.427613       26.006755
  C           36.021673        2.841200       24.642462
  O           34.800047        3.065356       23.953996
  H           35.360783        3.287215       26.654525
  H           36.282870        1.769865       26.499589
  H           36.574799        2.046492       24.135026
  H           36.631509        3.751415       24.652832
  O           24.332300       31.426515       38.526828
  C           23.432368       31.989242       37.924863
  O           22.483612       31.359437       37.176660
  C           21.798572       32.357596       36.461468
  C           21.986148       33.569492       37.319094
  O           23.258414       33.347552       37.909587
  H           22.272033       32.466301       35.479165
  H           20.746568       32.105112       36.327162
  H           21.233959       33.634154       38.109682
  H           21.984248       34.503310       36.745962
  O           25.752698        9.553609       26.827872
  C           26.948084        9.749629       26.681147
  O           27.514028       10.320099       25.580751
  C           28.903633       10.138847       25.695837
  C           29.102182       10.018810       27.174204
  O           27.896014        9.408060       27.608650
  H           29.178226        9.221023       25.163768
  H           29.454652       10.978451       25.271639
  H           29.199917       10.994926       27.656537
  H           29.966043        9.399757       27.440695
  O            0.966517       13.678103       28.085786
  C            1.888167       14.230091       28.664379
  O            3.199767       14.134647       28.307735
  C            3.949677       14.699972       29.354225
  C            2.982070       15.655871       29.978239
  O            1.728990       15.020605       29.771289
  H            4.243886       13.898619       30.041374
  H            4.843879       15.200727       28.982544
  H            2.977033       16.624824       29.472171
  H            3.164039       15.811407       31.047443
  O           28.354949       39.242156       33.096819
  C           29.504979       38.837199       33.145213
  O           29.874253       37.529080       33.050019
  C           31.235029       37.462566       33.397818
  C           31.729834       38.836189       33.069603
  O           30.593144       39.651043       33.315667
  H           31.308204       37.239214       34.468173
  H           31.756556       36.689503       32.833120
  H           32.013762       38.930627       32.018191
  H           32.571853       39.148615       33.697213
  O            4.059382       33.782849       39.700000
  C            4.892319       32.963410       39.348381
  O            6.240871       33.147242       39.413279
  C            6.831748       32.093201       38.694278
  C            5.801167       31.011728       38.782138
  O            4.581207       31.737397       38.823402
  H            6.996966       32.427080       37.663683
  H            7.784174       31.793029       39.131635
  H            5.897228       30.425809       39.700000
  H            5.818186       30.333982       37.921399
  O           17.563957       18.372925       29.950322
  C           17.028518       19.455964       30.121288
  O           17.487087       20.638319       29.622938
  C           16.743879       21.658401       30.242757
  C           15.466675       20.967127       30.603714
  O           15.886620       19.634234       30.855991
  H           17.295175       22.000590       31.125864
  H           16.581861       22.501893       29.571362
  H           14.752673       20.964001       29.775951
  H           14.985038       21.394390       31.490265
  O           16.236189       31.828834       15.297680
  C           15.226845       31.144063       15.262868
  O           15.203701       29.785780       15.368375
  C           13.901858       29.372399       15.034578
  C           13.076322       30.577172       15.360786
  O           13.965903       31.652732       15.099219
  H           13.878980       29.129816       13.966154
  H           13.599171       28.496253       15.608379
  H           12.786556       30.604030       16.414500
  H           12.177255       30.660232       14.740077
  O           34.526651        1.136769       17.601552
  C           35.417871        1.658537       18.251463
  O           36.483960        0.996597       18.782395
  C           37.130445        1.893798       19.650835
  C           36.754117        3.229191       19.090030
  O           35.462190        2.994526       18.549235
  H           36.736235        1.741619       20.661943
  H           38.209416        1.738043       19.658785
  H           37.424905        3.540976       18.285149
  H           36.716937        4.017161       19.850438
  O            8.586515       20.140503       31.808368
  C            7.839996       20.933665       31.258365
  O            6.709808       21.453146       31.814614
  C            6.015741       22.115140       30.786444
  C            7.105470       22.469474       29.823979
  O            8.032504       21.406238       29.987493
  H            5.289849       21.417400       30.353848
  H            5.490508       22.995097       31.158340
  H            7.595107       23.411140       30.085741
  H            6.758524       22.522854       28.786058
  O           31.706261       13.816854       23.533656
  C           32.413349       14.800104       23.682479
  O           31.978004       16.011558       24.129081
  C           33.027555       16.924169       23.922476
  C           34.239654       16.046722       23.939868
  O           33.754508       14.823372       23.406346
  H           32.878947       17.408382       22.950698
  H           33.057171       17.685424       24.702293
  H           34.605723       15.871286       24.954864
  H           35.059089       16.437362       23.326332
  O           18.184606       38.348464       33.233873
  C           17.907264       37.389950       32.531568
  O           17.114039       36.349564       32.912344
  C           17.246575       35.353671       31.928610
  C           17.631967       36.136280       30.712716
  O           18.370658       37.221665       31.253896
  H           18.034070       34.659392       32.242820
  H           16.316804       34.802176       31.787618
  H           16.760042       36.528973       30.183058
  H           18.247709       35.561691       30.011853
  O           24.317627       14.337259       23.225745
  C           24.029889       13.152391       23.178898
  O           23.970476       12.322546       24.257984
  C           23.854260       11.012756       23.759944
  C           23.223927       11.221469       22.418855
  O           23.735501       12.484721       22.019996
  H           24.858547       10.580781       23.684412
  H           23.242684       10.388176       24.411383
  H           22.134328       11.283223       22.481788
  H           23.497264       10.447679       21.692882
  O           13.297458       29.633926       25.754494
  C           12.294300       30.321441       25.853975
  O           11.988379       31.373733       25.044225
  C           10.900176       32.040386       25.634554
  C           10.242094       30.959992       26.433975
  O           11.333695       30.134051       26.811901
  H           11.289614       32.846466       26.266593
  H           10.232926       32.463462       24.883365
  H            9.542951       30.372050       25.833539
  H            9.721205       31.340431       27.319662
  O           23.778380       17.607808       37.336398
  C           23.470597       17.214830       36.222962
  O           22.378888       16.449499       35.941821
  C           22.518528       16.011431       34.613026
  C           23.384089       17.068988       34.003290
  O           24.195735       17.482902       35.092559
  H           23.005483       15.029748       34.621561
  H           21.552906       15.929046       34.113740
  H           22.801504       17.923629       33.649479
  H           24.003517       16.693121       33.181381
  O           11.222605       24.659789       16.332383
  C           12.228649       23.977083       16.229007
  O           13.427442       24.423473       15.759717
  C           14.238059       23.290775       15.567377
  C           13.663759       22.302730       16.533476
  O           12.287227       22.650375       16.563542
  H           14.133926       22.963266       14.526803
  H           15.286569       23.507783       15.772401
  H           14.081418       22.418502       17.537048
  H           13.792505       21.263896       16.209828
  O           10.750420       17.251232       39.418595
  C           11.851291       16.772997       39.198880
  O           12.084482       15.685139       38.412249
  C           13.425013       15.313243       38.616627
  C           14.065002       16.596838       39.043475
  O           13.014968       17.263363       39.728876
  H           13.456707       14.551253       39.403562
  H           13.872953       14.910170       37.708121
  H           14.374752       17.205584       38.189963
  H           14.924252       16.446395       39.706466
  O           27.700673       15.222157       33.409538
  C           28.866004       15.496670       33.173858
  O           29.280709       16.571459       32.446225
  C           30.653464       16.392694       32.199882
  C           31.085775       15.524831       33.339760
  O           29.927870       14.746296       33.603835
  H           30.769197       15.894190       31.230861
  H           31.185182       17.344210       32.180071
  H           31.332141       16.108585       34.230566
  H           31.935194       14.880137       33.088050
  O           26.491085       20.954090       16.608333
  C           27.673991       20.891085       16.901014
  O           28.366334       19.734335       17.098985
  C           29.608080       20.091469       17.653621
  C           29.801638       21.491609       17.162150
  O           28.473393       21.987869       17.084102
  H           29.526711       20.041752       18.745320
  H           30.403147       19.423383       17.321917
  H           30.250348       21.519268       16.165709
  H           30.403210       22.104303       17.842751
  O           15.872955        8.632946       17.859812
  C           14.712274        9.004757       17.800844
  O           13.626912        8.187498       17.904173
  C           12.504207        8.951635       17.539857
  C           12.939120       10.349886       17.848311
  O           14.338201       10.308075       17.608672
  H           12.315337        8.801422       16.470902
  H           11.619082        8.659834       18.105460
  H           12.765681       10.612967       18.895071
  H           12.459885       11.097977       17.207068
  O           34.008691       14.551555       30.433499
  C           33.154603       13.719506       30.692590
  O           31.840267       13.997886       30.919801
  C           31.254355       12.821758       31.420329
  C           32.134826       11.747986       30.862491
  O           33.406175       12.377874       30.803209
  H           31.285981       12.858103       32.515126
  H           30.219255       12.718463       31.094141
  H           31.836206       11.454735       29.852624
  H           32.175375       10.855713       31.497081
  O           20.207402       28.161012       20.520038
  C           20.324941       29.369718       20.401237
  O           19.287863       30.243048       20.265722
  C           19.843599       31.485107       19.911399
  C           21.227424       31.403378       20.475092
  O           21.530187       30.019515       20.375796
  H           19.844113       31.564941       18.818455
  H           19.274365       32.314387       20.331835
  H           21.261191       31.699866       21.526736
  H           21.954406       31.998913       19.911767
  O           23.157875        9.879285       36.397816
  C           22.770798       10.237087       35.297339
  O           23.364773       11.200433       34.538552
  C           22.486219       11.484409       33.478080
  C           21.707857       10.213622       33.341500
  O           21.666583        9.721168       34.672810
  H           21.853315       12.330080       33.769922
  H           23.026574       11.738186       32.565878
  H           22.219671        9.483976       32.708520
  H           20.694184       10.372348       32.957087
  O           18.786445        9.053996        8.717553
  C           18.906174        9.279650        9.910719
  O           19.186048       10.500215       10.447833
  C           19.483515       10.290211       11.805961
  C           18.745663        9.025881       12.116516
  O           18.785755        8.322997       10.883249
  H           20.568356       10.174244       11.908781
  H           19.151390       11.124930       12.423568
  H           17.702673        9.213752       12.384611
  H           19.219282        8.438603       12.911053
  O           14.372341       36.664889       18.852226
  C           14.651014       36.010981       17.860437
  O           15.778082       36.173655       17.112202
  C           15.603409       35.415876       15.940724
  C           14.636981       34.357171       16.370330
  O           13.853635       35.020688       17.351510
  H           15.187100       36.068590       15.165127
  H           16.546397       34.996661       15.589252
  H           15.140253       33.504862       16.834320
  H           14.005154       33.997056       15.550810
  O           36.729172       18.965574       36.259904
  C           35.908912       18.609813       37.090270
  O           35.135142       19.452236       37.830677
  C           34.519357       18.672587       38.825694
  C           34.491257       17.308955       38.209968
  O           35.659857       17.300021       37.403188
  H           35.140761       18.708596       39.727614
  H           33.520592       19.039692       39.062763
  H           33.616723       17.164654       37.570151
  H           34.528509       16.503852       38.952210
  O           20.423706        6.055480       26.571577
  C           20.553063        7.111723       27.168666
  O           19.618631        7.657226       27.996835
  C           20.039848        8.968468       28.280247
  C           21.522573        8.889150       28.094142
  O           21.663553        7.907943       27.077305
  H           19.566517        9.647018       27.561618
  H           19.765733        9.268538       29.291839
  H           22.032213        8.541374       28.996538
  H           21.965136        9.839976       27.777016
  O           29.282095       10.138255       33.612739
  C           28.166490        9.729170       33.335297
  O           27.791783        8.419217       33.350097
  C           26.527513        8.349200       32.738691
  C           25.970966        9.719348       32.967496
  O           27.130061       10.539682       32.955314
  H           26.669413        8.130700       31.674256
  H           25.907844        7.571468       33.185504
  H           25.483444        9.807671       33.941930
  H           25.268913       10.031575       32.186384
  O           22.420043       20.316291        8.966376
  C           22.881927       19.187216        8.993811
  O           22.544599       18.187064        8.132123
  C           23.097819       17.001078        8.646404
  C           24.255610       17.497088        9.454422
  O           23.804518       18.763189        9.912793
  H           22.340937       16.505969        9.265190
  H           23.409133       16.324809        7.850009
  H           25.151873       17.638658        8.844774
  H           24.497571       16.844134       10.300357
  O           21.832398       23.634625        2.209362
  C           21.505750       24.122368        3.279085
  O           20.352016       24.812847        3.499852
  C           20.469771       25.410183        4.767299
  C           21.438398       24.511568        5.469904
  O           22.268979       24.051431        4.413964
  H           20.863474       26.424499        4.636683
  H           19.508035       25.461215        5.278142
  H           20.942735       23.653608        5.931665
  H           22.032216       25.033040        6.228816
  O           12.766581       11.599702       37.456847
  C           11.550595       11.522075       37.391631
  O           10.693368       11.876013       38.389873
  C            9.420132       11.408011       38.019813
  C            9.506138       11.355044       36.526764
  O           10.874399       11.051923       36.297458
  H            9.273464       10.416590       38.463066
  H            8.630760       12.076076       38.364895
  H            9.274003       12.319305       36.067074
  H            8.861522       10.585090       36.088426
  O           18.094639       32.683774       34.566270
  C           18.109237       31.464321       34.526013
  O           17.051111       30.662644       34.833072
  C           17.542359       29.347016       34.903068
  C           18.745262       29.393305       34.014090
  O           19.207846       30.726378       34.173881
  H           17.803696       29.130092       35.944963
  H           16.802624       28.623336       34.560170
  H           18.487302       29.230193       32.964399
  H           19.521396       28.677677       34.307335
  O            6.363174       25.713289       21.895520
  C            5.340836       25.486441       22.521831
  O            4.138468       26.085037       22.292496
  C            3.299692       25.741590       23.367484
  C            3.881113       24.447198       23.842771
  O            5.264759       24.597301       23.560649
  H            3.367261       26.530558       24.125022
  H            2.262140       25.636684       23.049709
  H            3.494825       23.592276       23.281621
  H            3.721942       24.274376       24.912957
  O           35.800208        8.304830        6.764614
  C           35.734598        8.945128        7.801250
  O           36.558439        8.777025        8.873457
  C           36.004689        9.516117        9.933742
  C           35.220274       10.576159        9.226349
  O           34.805338        9.923475        8.035369
  H           35.365113        8.849618       10.523337
  H           36.777851        9.934864       10.578235
  H           35.838733       11.437974        8.962185
  H           34.352684       10.920579        9.800076
  O           24.569417        4.355077       17.360633
  C           24.835697        3.532138       16.499955
  O           26.080818        3.034841       16.257119
  C           26.006399        2.319733       15.048739
  C           24.564597        1.924157       14.984501
  O           23.910208        2.998807       15.642909
  H           26.289801        2.991744       14.230824
  H           26.672121        1.456421       15.051320
  H           24.367277        0.998945       15.532268
  H           24.195640        1.818202       13.958273
  O           13.106787        3.504285       15.922211
  C           14.016272        2.949227       16.516895
  O           13.870011        2.224967       17.661733
  C           15.163062        1.970947       18.152236
  C           16.005742        2.034098       16.917205
  O           15.325230        2.989041       16.116214
  H           15.420781        2.756266       18.871788
  H           15.222477        0.999750       18.643914
  H           16.030314        1.078496       16.386903
  H           17.032855        2.359333       17.116607
  O           28.761708       16.734522       25.122152
  C           28.400054       16.475708       26.258428
  O           27.132853       16.118750       26.609686
  C           27.073816       16.151648       28.014154
  C           28.497951       15.922337       28.412469
  O           29.225768       16.520810       27.350061
  H           26.709817       17.138290       28.322280
  H           26.406281       15.384030       28.406149
  H           28.745981       14.858663       28.458064
  H           28.755240       16.391199       29.368749
  O           15.818369       28.767411        3.516510
  C           14.640856       28.579074        3.257871
  O           14.057247       27.353994        3.134670
  C           12.775835       27.564494        2.595434
  C           12.460846       28.963668        3.022626
  O           13.737426       29.585413        3.042009
  H           12.838535       27.466835        1.505741
  H           12.054830       26.842768        2.979833
  H           12.032624       29.000140        4.027761
  H           11.789709       29.481746        2.328600
  O           36.750823       12.303017       29.892013
  C           36.460984       13.208407       29.127054
  O           37.331087       14.155159       28.676297
  C           36.563719       15.140556       28.030357
  C           35.344515       14.385527       27.602723
  O           35.203889       13.405464       28.620712
  H           36.331381       15.928782       28.755353
  H           37.097850       15.575748       27.185483
  H           35.487986       13.882612       26.642779
  H           34.449507       15.015074       27.546764
  O           19.001093        2.099385       35.190634
  C           18.014675        2.817179       35.165142
  O           16.733991        2.375271       35.019651
  C           15.934101        3.509135       34.792435
  C           16.717948        4.605127       35.443424
  O           18.062183        4.181920       35.268701
  H           15.837554        3.653441       33.710421
  H           14.941923        3.394810       35.229485
  H           16.506100        4.682720       36.513050
  H           16.556962        5.582365       34.974820
  O           35.538735       27.755941       12.280520
  C           34.896396       28.355838       11.434102
  O           34.780107       29.711468       11.361011
  C           33.773707       29.984721       10.417830
  C           33.801152       28.772166        9.541270
  O           34.186829       27.740363       10.437504
  H           32.821284       30.091961       10.949140
  H           33.980775       30.900278        9.863412
  H           34.550764       28.853842        8.749808
  H           32.827840       28.548199        9.090712
  O           21.389435        2.770637       22.804935
  C           21.933442        3.052059       21.749587
  O           21.280917        3.418884       20.611057
  C           22.231956        3.413013       19.575398
  C           23.518297        3.646290       20.303620
  O           23.289529        3.025757       21.560284
  H           22.203725        2.433372       19.085085
  H           22.027663        4.189680       18.838138
  H           23.713521        4.710010       20.462958
  H           24.381551        3.195159       19.801850
  O           32.467643       18.335894       14.144698
  C           32.881961       17.248526       13.777448
  O           32.368284       16.529649       12.740167
  C           32.949950       15.250995       12.801874
  C           34.243301       15.507643       13.509529
  O           33.924575       16.589451       14.372492
  H           32.285127       14.595626       13.375810
  H           33.099368       14.829351       11.807695
  H           35.032776       15.822338       12.821999
  H           34.593845       14.644372       14.086055
  O           28.899031       18.917327       24.886088
  C           29.920901       19.581137       24.949645
  O           31.136080       19.186668       24.476008
  C           32.081562       20.108344       24.959409
  C           31.263297       21.342772       25.173955
  O           29.988761       20.822920       25.523116
  H           32.498347       19.718244       25.894830
  H           32.889470       20.267033       24.244844
  H           31.166992       21.936079       24.260876
  H           31.652985       21.980070       25.975512
  O           37.234075       18.366639       27.850645
  C           37.161885       19.584115       27.812674
  O           38.209006       20.432597       28.013216
  C           37.669740       21.725682       28.132480
  C           36.387529       21.623256       27.367728
  O           36.002271       20.271811       27.572114
  H           37.504120       21.934969       29.195339
  H           38.339097       22.479768       27.717973
  H           36.532290       21.793459       26.297646
  H           35.613699       22.305296       27.737200
  O            7.519235       35.039917        1.373874
  C            6.915975       34.166507        1.975647
  O            6.161677       33.195487        1.388488
  C            5.447706       32.555281        2.416827
  C            6.310733       32.789460        3.616721
  O            6.905280       34.049049        3.340048
  H            4.467671       33.036790        2.509450
  H            5.308356       31.494267        2.208667
  H            7.098650       32.037420        3.709578
  H            5.741213       32.828563        4.551931
  O            6.294404       16.147202        4.584243
  C            5.909162       15.207378        3.908062
  O            6.709723       14.434071        3.122124
  C            5.860923       13.638513        2.332361
  C            4.616781       13.556422        3.159869
  O            4.602192       14.804523        3.837092
  H            5.692867       14.152332        1.379131
  H            6.294712       12.657068        2.139767
  H            4.666541       12.752038        3.898442
  H            3.709907       13.433586        2.557381
  O           17.644197        9.069933       28.722043
  C           16.928521        8.110398       28.958688
  O           17.377707        6.858479       29.254542
  C           16.261944        6.003830       29.212747
  C           15.123019        6.928995       29.506549
  O           15.559943        8.159051       28.947389
  H           16.196114        5.569393       28.208839
  H           16.342745        5.201714       29.946628
  H           14.967926        7.062108       30.580433
  H           14.181970        6.608321       29.046010
  O           23.087680       27.671580       29.114932
  C           23.713407       26.829497       29.738038
  O           23.226890       25.610241       30.103164
  C           24.152830       25.053994       31.003343
  C           25.433774       25.726631       30.621057
  O           25.001290       27.002023       30.170579
  H           23.839079       25.306195       32.022586
  H           24.209226       23.969925       30.902775
  H           25.939050       25.212202       29.799437
  H           26.129848       25.829568       31.460929
  O           35.292310       36.933142       22.656430
  C           36.041993       36.158573       23.228198
  O           37.383887       36.341629       23.377898
  C           37.909870       35.130384       23.860937
  C           36.737247       34.511712       24.554911
  O           35.633672       34.980039       23.793734
  H           38.248480       34.534581       23.005799
  H           38.748811       35.297954       24.536658
  H           36.634799       34.865758       25.584064
  H           36.769307       33.416508       24.554656
  O           21.038429       28.392246       26.251634
  C           22.012147       29.038153       25.900100
  O           22.232379       30.346212       26.211676
  C           23.313966       30.777253       25.423339
  C           24.056569       29.506300       25.153857
  O           23.022430       28.533496       25.125406
  H           22.916407       31.228520       24.507258
  H           23.926524       31.510486       25.948354
  H           24.754512       29.259433       25.958178
  H           24.598527       29.521440       24.201727
  O           34.666109       14.056914       35.719167
  C           35.421663       13.686011       36.602609
  O           36.087685       12.497326       36.609060
  C           36.642991       12.347348       37.892120
  C           36.785762       13.761522       38.360231
  O           35.697165       14.417697       37.726991
  H           35.940869       11.774485       38.508362
  H           37.599239       11.824970       37.857316
  H           37.720447       14.214901       38.019920
  H           36.715535       13.860583       39.449155
  O           36.268719       15.439460       20.832317
  C           35.945110       14.714424       19.905763
  O           35.686357       13.381067       20.014409
  C           35.597074       12.874471       18.705788
  C           35.191032       14.075660       17.911008
  O           35.807793       15.144974       18.612986
  H           36.583056       12.496300       18.412997
  H           34.867687       12.067191       18.636544
  H           34.108155       14.225163       17.916009
  H           35.542811       14.041011       16.873920
  O           13.771352       33.167189       12.358301
  C           14.716203       33.830071       11.962390
  O           15.272069       34.874371       12.638445
  C           16.152739       35.514458       11.748609
  C           16.520020       34.418559       10.798078
  O           15.346508       33.619579       10.764931
  H           15.613007       36.329965       11.254101
  H           17.021727       35.920937       12.266428
  H           17.351330       33.813584       11.169465
  H           16.764936       34.786429        9.795487
  O           25.196442       16.450524        1.796342
  C           26.131791       16.224779        2.546717
  O           26.876927       17.179629        3.170924
  C           27.988813       16.527466        3.732612
  C           27.490719       15.130058        3.928961
  O           26.572648       14.966120        2.858041
  H           28.817055       16.576696        3.016727
  H           28.295928       16.992272        4.669701
  H           26.956808       15.013071        4.875667
  H           28.287612       14.380217        3.872395
  O           10.835355       22.322109       11.947371
  C            9.760183       21.815066       11.672031
  O            9.485919       20.482511       11.747371
  C            8.243817       20.285067       11.118645
  C            7.580013       21.617970       11.267421
  O            8.673388       22.523488       11.233268
  H            8.424352       20.025517       10.069387
  H            7.675775       19.485100       11.593914
  H            7.066730       21.716809       12.227510
  H            6.872898       21.836015       10.459371
  O            7.917656       13.861693        8.684592
  C            8.014711       15.077551        8.718769
  O            6.971863       15.937081        8.892770
  C            7.458359       17.228872        8.625002
  C            8.920154       17.101378        8.918768
  O            9.197595       15.752190        8.573341
  H            7.264816       17.460141        7.571458
  H            6.974607       17.978156        9.251946
  H            9.140869       17.249205        9.979160
  H            9.536694       17.786179        8.325957
  O            7.574745       35.075088        9.430675
  C            6.518005       35.628281        9.687928
  O            6.256252       36.947322        9.468344
  C            5.043984       37.236931       10.119213
  C            4.359152       35.906826       10.154258
  O            5.442451       34.993648       10.249999
  H            5.271363       37.613858       11.122769
  H            4.465795       37.985336        9.576915
  H            3.804939       35.705327        9.233798
  H            3.684081       35.795935       11.010110
  O           17.385943       27.856156       12.800342
  C           16.972235       26.784002       12.390181
  O           16.724827       25.694955       13.170801
  C           16.506744       24.610968       12.302175
  C           16.024896       25.277961       11.052238
  O           16.708352       26.522588       11.072027
  H           17.458885       24.089031       12.154156
  H           15.773705       23.912997       12.707132
  H           14.947856       25.463698       11.074282
  H           16.272714       24.715932       10.144928
  O           26.342115        8.977031       35.789145
  C           25.697448        7.974589       36.050706
  O           24.336680        7.906272       36.066281
  C           23.996414        6.671968       36.647499
  C           25.198789        5.827645       36.363227
  O           26.260653        6.770394       36.379665
  H           23.841279        6.826071       37.721317
  H           23.087973        6.258441       36.209059
  H           25.150950        5.363630       35.374590
  H           25.362247        5.049014       37.116564
  O            4.366613       32.219516       14.892652
  C            4.337454       33.012661       15.819459
  O            5.036259       34.181466       15.866011
  C            4.926912       34.670560       17.179757
  C            3.643685       34.064573       17.654634
  O            3.598678       32.828090       16.957722
  H            5.790900       34.317055       17.753743
  H            4.902499       35.760245       17.201887
  H            2.775447       34.664658       17.369924
  H            3.624347       33.898255       18.737438
  O           28.126167        1.006817       24.510210
  C           28.747895        2.056681       24.498414
  O           28.192767        3.291814       24.649676
  C           29.190283        4.229787       24.329881
  C           30.454393        3.481437       24.615181
  O           30.102946        2.138115       24.317572
  H           29.092399        4.491495       23.270245
  H           29.099920        5.133517       24.932879
  H           30.743262        3.548315       25.667360
  H           31.294373        3.807774       23.991933
  O           36.534391       19.380134       22.418154
  C           35.825094       20.358952       22.251680
  O           34.489021       20.405899       22.514936
  C           34.005944       21.605456       21.962848
  C           35.219838       22.480554       21.954747
  O           36.278534       21.554239       21.760578
  H           33.636860       21.397413       20.952207
  H           33.197322       22.025895       22.561062
  H           35.365157       22.990941       22.910461
  H           35.205353       23.224319       21.150319
  O           16.133768       21.665862       19.102669
  C           15.977178       22.820319       18.739889
  O           16.604192       23.393285       17.674449
  C           16.349160       24.774267       17.744793
  C           15.062892       24.836644       18.507042
  O           15.148917       23.711294       19.368894
  H           17.175214       25.251794       18.283777
  H           16.263572       25.217911       16.752647
  H           14.192840       24.719575       17.855657
  H           14.954067       25.759707       19.087224
  O           16.776924       11.829551       24.050186
  C           15.980424       12.753354       24.082962
  O           16.233156       14.015278       23.635440
  C           15.170061       14.824520       24.073684
  C           14.046372       13.847129       24.220081
  O           14.712887       12.649282       24.590918
  H           15.452564       15.279241       25.029885
  H           14.941977       15.611903       23.355001
  H           13.518872       13.682769       23.276827
  H           13.322503       14.139880       24.988723
  O            5.169593        5.407129        6.063042
  C            4.642461        6.481618        5.825337
  O            3.307656        6.734095        5.930944
  C            3.081429        7.989369        5.339160
  C            4.407123        8.668596        5.482639
  O            5.327434        7.589991        5.403651
  H            2.806034        7.832884        4.290079
  H            2.281926        8.532754        5.843171
  H            4.515521        9.157666        6.454266
  H            4.600765        9.400010        4.690151
  O           35.358214        6.628165       14.705226
  C           34.144317        6.511488       14.746945
  O           33.262294        7.550039       14.753874
  C           31.999248        7.011086       15.056106
  C           32.121972        5.594278       14.590281
  O           33.495913        5.306626       14.805087
  H           31.843260        7.080620       16.138573
  H           31.200617        7.547165       14.542970
  H           31.899716        5.491006       13.524947
  H           31.489495        4.901693       15.156673
  O           10.801867        8.592260        3.299146
  C            9.787936        8.864058        3.921216
  O            9.169071       10.077918        3.908981
  C            8.201976       10.053519        4.929390
  C            7.895887        8.594788        5.062857
  O            9.132823        7.978893        4.735347
  H            8.648599       10.469411        5.839588
  H            7.321293       10.637858        4.662098
  H            7.135808        8.267137        4.348767
  H            7.581157        8.314771        6.074309
  O           23.939404       22.225061       20.640176
  C           23.390755       23.291191       20.413788
  O           23.677327       24.105730       19.359747
  C           23.017461       25.324949       19.594656
  C           21.875994       24.921390       20.474197
  O           22.408750       23.826119       21.204369
  H           23.713220       26.003015       20.101653
  H           22.680668       25.784879       18.665389
  H           21.013649       24.577706       19.896925
  H           21.556839       25.719521       21.153629
  O           24.562263       14.120938        4.222349
  C           23.343350       14.143622        4.273716
  O           22.547320       14.951155        3.518185
  C           21.248003       14.853921        4.046789
  C           21.252786       13.505364        4.695457
  O           22.601207       13.359519        5.116275
  H           21.107892       15.663429        4.772024
  H           20.490193       14.934912        3.267261
  H           21.013338       12.707668        3.987400
  H           20.572097       13.440316        5.551572
  O           12.590642        2.743350       21.527029
  C           12.971006        3.678271       20.841356
  O           12.177739        4.696094       20.403907
  C           12.924927        5.417833       19.456329
  C           14.337503        5.138769       19.863946
  O           14.259884        3.827320       20.403090
  H           12.694158        5.023393       18.460306
  H           12.689055        6.481813       19.484798
  H           14.683525        5.823219       20.642919
  H           15.039167        5.169450       19.022979
  O            7.746400       24.274266       35.344460
  C            8.339798       23.212023       35.252711
  O            7.747240       22.006667       35.023379
  C            8.728811       21.022309       35.234706
  C           10.002928       21.760108       34.966980
  O            9.697202       23.083621       35.381040
  H            8.657374       20.679577       36.273134
  H            8.595279       20.171877       34.565801
  H           10.256604       21.770167       33.903708
  H           10.853069       21.364945       35.534084
  O           36.345122        2.744548       38.464275
  C           35.135522        2.905059       38.462914
  O           34.217268        1.903359       38.562953
  C           32.962728        2.469141       38.274651
  C           33.155870        3.908398       38.636086
  O           34.528926        4.127433       38.347399
  H           32.758646        2.332632       37.206655
  H           32.167806        2.000336       38.855014
  H           32.982778        4.092033       39.699720
  H           32.525256        4.585054       38.048749
  O           27.355741       22.744419       36.179358
  C           27.145114       23.843820       35.693709
  O           26.287790       24.088306       34.663261
  C           26.517545       25.411271       34.246037
  C           27.066941       26.058159       35.478555
  O           27.757964       24.993585       36.115556
  H           27.244579       25.394361       33.426259
  H           25.599881       25.889130       33.902463
  H           26.275767       26.415892       36.142687
  H           27.750921       26.885379       35.258603
  C           31.179919       35.824959       24.842714
  O           32.493044       35.303461       25.082596
  C           32.987042       35.612710       26.304410
  O           32.421055       36.276589       27.160344
  O           34.225675       35.062641       26.412631
  C           34.860318       35.319082       27.655196
  H           31.183784       36.919145       24.887904
  H           30.869104       35.521141       23.838877
  H           30.465898       35.417362       25.560723
  H           35.849931       34.842838       27.639163
  H           35.007392       36.399324       27.797838
  H           34.282796       34.893470       28.476854
  C           20.283478       18.910902       30.739615
  O           21.278286       17.879332       30.743893
  C           22.460542       18.260611       30.205936
  O           22.714150       19.360279       29.736773
  O           23.315962       17.205869       30.271320
  C           24.599938       17.474683       29.731277
  H           20.051851       19.221006       29.715172
  H           19.372802       18.510054       31.194138
  H           20.613291       19.767294       31.330645
  H           25.207960       16.564674       29.823980
  H           24.524965       17.723669       28.662968
  H           25.089111       18.277632       30.284253
  C           25.577166       26.851095        8.944907
  O           24.310031       26.187297        8.858060
  C           24.406518       24.859107        8.614952
  O           25.443824       24.230508        8.464755
  O           23.148804       24.345685        8.559706
  C           23.109649       22.950910        8.303640
  H           26.124257       26.766008        8.000052
  H           25.395294       27.910989        9.145274
  H           26.170467       26.443926        9.765704
  H           22.057301       22.638053        8.270714
  H           23.560102       22.725066        7.326406
  H           23.611612       22.399681        9.099869
  C            4.473819        6.461833        2.790817
  O            5.791365        5.918950        2.638669
  C            5.805871        4.593636        2.363295
  O            4.825073        3.872936        2.252269
  O            7.101426        4.200688        2.238274
  C            7.256678        2.820013        1.951686
  H            3.952468        5.983972        3.626965
  H            4.566650        7.530313        3.006069
  H            3.900250        6.346343        1.869307
  H            8.331107        2.603989        1.878642
  H            6.843488        2.207862        2.766207
  H            6.786111        2.569690        1.000000
  C            5.989296        5.564873       23.720408
  O            7.019267        6.527333       23.462280
  C            7.415581        6.567178       22.168508
  O            6.982544        5.869276       21.263459
  O            8.384456        7.513710       22.050785
  C            8.892740        7.653151       20.733703
  H            6.338886        4.552801       23.490631
  H            5.736743        5.610696       24.783760
  H            5.091496        5.796836       23.144520
  H            9.668929        8.430175       20.746515
  H            9.358783        6.715415       20.398509
  H            8.102954        7.961783       20.047565
  C           27.557234        4.431491       34.301456
  O           26.255002        3.836384       34.239498
  C           25.917115        3.148082       35.355102
  O           26.614864        3.003482       36.348045
  O           24.669016        2.638961       35.177489
  C           24.194748        1.885290       36.281822
  H           28.328990        3.662934       34.415535
  H           27.735214        4.963994       33.362646
  H           27.613784        5.151437       35.119979
  H           23.190254        1.514317       36.037338
  H           24.841991        1.014858       36.461612
  H           24.127245        2.510348       37.173195
  C           23.909887        7.296271       31.787888
  O           22.647019        7.280240       31.110609
  C           22.422390        6.147746       30.403856
  O           23.187121        5.199453       30.305739
  O           21.200904        6.250250       29.815668
  C           20.843920        5.120859       29.034939
  H           24.734716        7.231169       31.070448
  H           23.995960        8.242929       32.329210
  H           23.970024        6.481031       32.511260
  H           19.852182        5.304614       28.600093
  H           21.555237        4.982827       28.207972
  H           20.790992        4.225574       29.655797
  C           12.752452       31.993464        5.219590
  O           12.344975       32.556627        3.966349
  C           11.063701       32.274073        3.633185
  O           10.282903       31.601583        4.290311
  O           10.797092       32.862291        2.436766
  C            9.477030       32.636961        1.968617
  H           12.692384       30.900373        5.190535
  H           13.793011       32.278195        5.400598
  H           12.142711       32.386133        6.035388
  H            9.366070       33.142692        0.999945
  H            9.301310       31.563058        1.811280
  H            8.746454       33.052743        2.663732
  C           25.856044        3.989011       23.553847
  O           26.782504        5.079548       23.475091
  C           26.214174        6.292290       23.671962
  O           25.030278        6.503122       23.890231
  O           27.187448        7.236961       23.577983
  C           26.718750        8.563273       23.761612
  H           25.085278        4.079361       22.781153
  H           26.407017        3.059035       23.385999
  H           25.398349        3.942423       24.543718
  H           27.573220        9.245802       23.659462
  H           25.983660        8.823686       22.986546
  H           26.292872        8.685922       24.758299
  C           31.039355       23.648328       11.588048
  O           32.149079       23.064535       10.894146
  C           31.791618       22.335743        9.810826
  O           30.649972       22.148260        9.416879
  O           32.922484       21.841997        9.239987
  C           32.684120       21.049209        8.087958
  H           30.367826       22.870935       11.967532
  H           31.427800       24.215631       12.438859
  H           30.495800       24.335645       10.937169
  H           33.652424       20.694514        7.709833
  H           32.078155       20.168282        8.344227
  H           32.201395       21.639694        7.308147
  C            7.378195        4.505155       31.301650
  O            6.004259        4.344842       31.676351
  C            5.194608        5.324156       31.209543
  O            5.542744        6.283423       30.537005
  O            3.927034        5.059978       31.624233
  C            2.973562        6.021940       31.202308
  H            7.783813        5.437870       31.707625
  H            7.946781        3.669484       31.719938
  H            7.486824        4.484250       30.215712
  H            1.990876        5.724185       31.592271
  H            3.215234        7.011865       31.615276
  H            2.919409        6.057547       30.113455
  C            9.575364       24.227959       32.503484
  O            8.558016       24.842135       31.702490
  C            7.674238       25.578992       32.415566
  O            7.683819       25.736035       33.627567
  O            6.768992       26.109164       31.550726
  C            5.776387       26.906100       32.176928
  H            9.132819       23.534425       33.226300
  H           10.237172       23.662074       31.841378
  H           10.170494       24.984676       33.017973
  H            5.095002       27.277873       31.399820
  H            5.186996       26.304042       32.883359
  H            6.230505       27.761156       32.679378
  C           15.605226       18.377041       23.965460
  O           14.687454       17.775929       23.043419
  C           15.010619       17.976808       21.744299
  O           15.972884       18.608483       21.333529
  O           14.075176       17.359842       20.974365
  C           14.297121       17.499710       19.580206
  H           15.628734       19.464109       23.834962
  H           15.263025       18.157713       24.981036
  H           16.605525       17.957716       23.842706
  H           13.489197       16.977089       19.050559
  H           14.262647       18.559172       19.288227
  H           15.248513       17.048637       19.295279
  C           35.504396       18.582768        3.428051
  O           36.346287       17.431715        3.286296
  C           35.862160       16.324428        3.896245
  O           34.819546       16.251906        4.529804
  O           36.740247       15.307494        3.688143
  C           36.349397       14.081342        4.285041
  H           35.394953       18.854680        4.483222
  H           35.975700       19.418348        2.902427
  H           34.526150       18.402901        2.978405
  H           37.122816       13.332460        4.067328
  H           36.280488       14.188352        5.377149
  H           35.402881       13.735210        3.867789
  C           13.684110       13.313159       20.306932
  O           14.807037       12.632997       20.881574
  C           15.593165       12.013378       19.970214
  O           15.410845       11.991371       18.761920
  O           16.617845       11.413228       20.632295
  C           17.519366       10.718977       19.785078
  H           13.028109       12.606728       19.787397
  H           13.116587       13.781300       21.116477
  H           14.016226       14.096739       19.623410
  H           18.299451       10.266646       20.412185
  H           17.001801        9.908339       19.252263
  H           17.992860       11.405886       19.082398
  C           11.471096        1.945481       18.993243
  O           10.207268        2.200162       18.367402
  C            9.537826        3.249680       18.899248
  O            9.916887        3.945647       19.829647
  O            8.366554        3.391847       18.223667
  C            7.561992        4.463090       18.690164
  H           11.336252        1.699828       20.051908
  H           11.933086        1.088121       18.495147
  H           12.135701        2.804470       18.883984
  H            6.642734        4.487910       18.089540
  H            7.275822        4.302370       19.739533
  H            8.081609        5.414620       18.570214
  C            7.439976        1.889499       27.718600
  O            8.234864        2.834362       26.991148
  C            9.367801        3.202384       27.634200
  O            9.728552        2.809932       28.733991
  O           10.032441        4.090209       26.847740
  C           11.245087        4.561437       27.413365
  H            7.109680        2.314550       28.672296
  H            6.555342        1.653675       27.119925
  H            7.996481        0.965605       27.886592
  H           11.697509        5.273168       26.709693
  H           11.050253        5.094674       28.354959
  H           11.941877        3.737043       27.570393
  C           11.610852       34.803078       13.068063
  O           12.191006       35.742131       12.154060
  C           12.269739       37.001575       12.644062
  O           11.891292       37.367473       13.747056
  O           12.836707       37.791585       11.693835
  C           12.973179       39.148846       12.083346
  H           10.581642       35.086288       13.312645
  H           11.594339       33.821430       12.585679
  H           12.210765       34.728382       13.976921
  H           13.430204       39.700001       11.250426
  H           11.987883       39.594081       12.282991
  H           13.622707       39.235035       12.955404
  C           38.700587       35.109716       10.216365
  O           37.563501       34.537541        9.557995
  C           37.021277       35.339645        8.611887
  O           37.411692       36.457466        8.308979
  O           35.962000       34.689339        8.060948
  C           35.297165       35.430030        7.050071
  H           38.422270       36.031011       10.738912
  H           39.066588       34.390205       10.954570
  H           39.502107       35.305353        9.501667
  H           34.458950       34.825714        6.677784
  H           34.884839       36.362118        7.462502
  H           35.972262       35.637808        6.218883
  C           15.344839       14.739445       14.957134
  O           13.989437       14.958831       15.367688
  C           13.073087       14.578825       14.446603
  O           13.315190       14.098029       13.349369
  O           11.835712       14.831002       14.950399
  C           10.777191       14.479439       14.073794
  H           15.575855       15.320616       14.058151
  H           16.004844       15.072276       15.763494
  H           15.527445       13.677810       14.780817
  H            9.827503       14.727832       14.566534
  H           10.837368       15.061567       13.142984
  H           10.790871       13.409012       13.864511
  C           18.516453       28.889589       23.065823
  O           18.860744       29.541986       24.294498
  C           18.632320       30.876241       24.285285
  O           18.186490       31.521565       23.348006
  O           18.991337       31.376277       25.497544
  C           18.804343       32.777355       25.618017
  H           19.115492       29.282847       22.237692
  H           18.732130       27.822515       23.172767
  H           17.452006       29.004556       22.853135
  H           19.128735       33.081159       26.622443
  H           19.424687       33.313951       24.885803
  H           17.751376       33.036214       25.499473
  C            5.140876       28.293068        4.902674
  O            4.705730       27.578988        3.738828
  C            5.405437       26.444464        3.502686
  O            6.334932       26.021640        4.174221
  O            4.899806       25.859447        2.384386
  C            5.554069       24.653947        2.022159
  H            6.183602       28.609970        4.794987
  H            4.517275       29.185396        5.009789
  H            5.020168       27.680947        5.798351
  H            5.080353       24.267935        1.109478
  H            6.614143       24.842058        1.799094
  H            5.449161       23.907704        2.810775
  C           12.864112       25.012507       13.125879
  O           11.941682       26.108639       13.088241
  C           11.731882       26.685563       14.294741
  O           12.242068       26.344631       15.351707
  O           10.849376       27.706431       14.128879
  C           10.538326       28.396081       15.328934
  H           12.487592       24.211756       13.771117
  H           12.969099       24.618519       12.110817
  H           13.845764       25.346007       13.467401
  H            9.817635       29.190010       15.090859
  H           10.065943       27.716889       16.053125
  H           11.433271       28.854190       15.752029
  C           19.882083       18.230799       24.023889
  O           20.997392       18.854472       24.672670
  C           22.101731       18.073525       24.727970
  O           22.198214       16.935206       24.293665
  O           23.084031       18.772127       25.356892
  C           24.303188       18.058194       25.485169
  H           19.575236       17.328668       24.563616
  H           19.046317       18.936553       24.026167
  H           20.124316       17.989654       22.987225
  H           25.023152       18.701092       26.009319
  H           24.157642       17.151194       26.089379
  H           24.708665       17.810403       24.503340
  C           30.291953       18.929819       34.291653
  O           29.666157       20.216832       34.367663
  C           29.243110       20.688230       33.171288
  O           29.362681       20.123038       32.094273
  O           28.667833       21.903375       33.373721
  C           28.182993       22.512861       32.187991
  H           31.186329       18.970946       33.661018
  H           30.593549       18.635729       35.301183
  H           29.592757       18.182775       33.911453
  H           27.747941       23.485182       32.455798
  H           29.006612       22.693935       31.482466
  H           27.406565       21.898751       31.729920
  C           38.479662       18.563956       31.370689
  O           38.337424       17.154620       31.588271
  C           37.248850       16.823934       32.321860
  O           36.434209       17.605702       32.789727
  O           37.221866       15.471087       32.454439
  C           36.123354       14.991146       33.213008
  H           38.597181       19.092635       32.322523
  H           39.378992       18.728501       30.770080
  H           37.623132       18.957684       30.820386
  H           36.196879       13.896610       33.267657
  H           36.161786       15.384102       34.239169
  H           35.180190       15.252756       32.731549
  C            7.286593       22.354569       21.140801
  O            7.444396       21.119480       20.431255
  C            7.031473       20.034645       21.127766
  O            6.569114       20.041460       22.259083
  O            7.226497       18.934194       20.353509
  C            6.835542       17.719909       20.974126
  H            7.883347       22.352408       22.059049
  H            7.642097       23.165876       20.498931
  H            6.235072       22.535419       21.371229
  H            7.039291       16.897090       20.275659
  H            7.426089       17.544243       21.884783
  H            5.768165       17.729255       21.198666
  C            4.490427       36.679957       25.835086
  O            4.231996       35.288486       26.060520
  C            3.864795       35.001680       27.331506
  O            3.755561       35.805446       28.245688
  O            3.644964       33.662732       27.417471
  C            3.255359       33.227526       28.710261
  H            5.317539       37.026793       26.463489
  H            4.774252       36.809895       24.786678
  H            3.594484       37.274218       26.023874
  H            3.111206       32.139192       28.676371
  H            4.045920       33.441039       29.443967
  H            2.314580       33.693935       29.005554
  C            1.768153       18.395395       25.695209
  O            2.352199       17.483148       24.756862
  C            2.908400       16.391493       25.332562
  O            2.949262       16.154285       26.530796
  O            3.420455       15.606967       24.347262
  C            4.041379       14.422922       24.821596
  H            2.527633       18.782589       26.382646
  H            1.345362       19.236094       25.137468
  H            0.962285       17.913163       26.251562
  H            4.426252       13.867430       23.955743
  H            4.893427       14.667794       25.471944
  H            3.320347       13.794201       25.345639
  C           13.654215       26.321334       23.425959
  O           12.228227       26.205244       23.508899
  C           11.568352       26.909225       22.559437
  O           12.081522       27.603078       21.694033
  O           10.234513       26.716620       22.739093
  C            9.424015       27.409842       21.803660
  H           13.966519       27.361885       23.563876
  H           14.093772       25.719088       24.226390
  H           14.017423       25.938915       22.470273
  H            8.372209       27.196716       22.037501
  H            9.576337       28.495259       21.890656
  H            9.630715       27.068338       20.788549
  C           27.612340       22.747776       19.737965
  O           28.419867       23.785613       20.307697
  C           29.176053       23.375495       21.352918
  O           29.204339       22.245919       21.818705
  O           29.894250       24.439791       21.800094
  C           30.731388       24.142570       22.906149
  H           26.903448       22.359295       20.476786
  H           27.045444       23.173555       18.904934
  H           28.237627       21.941346       19.350426
  H           31.258108       25.062391       23.194067
  H           30.131553       23.813129       23.766711
  H           31.471385       23.387989       22.636309
  C           11.168682        8.152692       36.394780
  O           11.984006        9.096190       35.688481
  C           12.205511        8.763770       34.395062
  O           11.786599        7.764920       33.828925
  O           12.981037        9.730288       33.835686
  C           13.292601        9.497243       32.471458
  H           11.651035        7.169955       36.424178
  H           11.045117        8.508425       37.421807
  H           10.180706        8.077679       35.936765
  H           13.923983       10.323674       32.118233
  H           13.863486        8.564221       32.359823
  H           12.383917        9.471570       31.868604
  C           21.607629        3.858477        9.143601
  O           21.447647        3.949411       10.564846
  C           22.117960        4.984484       11.123240
  O           22.816305        5.791863       10.528131
  O           21.885684        4.966837       12.462731
  C           22.540671        6.006314       13.171942
  H           22.659240        3.700803        8.881772
  H           21.030083        3.000067        8.788393
  H           21.224414        4.755716        8.654103
  H           22.297502        5.899905       14.237750
  H           23.631402        5.919579       13.063857
  H           22.192625        6.982437       12.831576
  C            8.340859       14.670475       29.383400
  O            8.272584       14.639810       27.952247
  C            9.242630       15.362927       27.345111
  O           10.114635       16.008766       27.907427
  O            9.075159       15.252345       26.000409
  C           10.032755       15.973825       25.242136
  H            8.218573       15.693378       29.754906
  H            7.524288       14.058958       29.778189
  H            9.284953       14.249154       29.733651
  H            9.807410       15.827264       24.177176
  H            9.964093       17.049912       25.457130
  H           11.038861       15.601377       25.439200
  C           35.080285        5.011274       34.355213
  O           36.036407        4.375458       35.212750
  C           36.201150        5.000096       36.402366
  O           35.626946        6.016210       36.764999
  O           37.121743        4.305255       37.122231
  C           37.391323        4.862839       38.398525
  H           35.398425        6.029790       34.108818
  H           35.015862        4.434910       33.427714
  H           34.092937        5.023508       34.820504
  H           38.147201        4.237715       38.892760
  H           37.804785        5.876601       38.297358
  H           36.490115        4.870019       39.012995
  C           30.677886        3.230802       35.563259
  O           32.002214        3.521716       35.099226
  C           32.799542        2.431452       35.009257
  O           32.482434        1.285235       35.290907
  O           34.017474        2.832936       34.557646
  C           34.955400        1.777220       34.422524
  H           30.705938        2.805321       36.571961
  H           30.114030        4.167518       35.598326
  H           30.169721        2.550244       34.877615
  H           35.901484        2.203477       34.062483
  H           35.146854        1.303976       35.396324
  H           34.605718        1.043084       33.695498
  C           11.803627       13.100544        3.277772
  O           11.690348       13.460281        4.660363
  C           10.794699       12.711989        5.346199
  O           10.111256       11.809537        4.885561
  O           10.781487       13.142620        6.635727
  C            9.872928       12.437575        7.466349
  H           10.848311       13.242210        2.761438
  H           12.548007       13.754245        2.813905
  H           12.142178       12.067981        3.174344
  H            9.931916       12.863138        8.477199
  H            8.842020       12.564613        7.105809
  H           10.139479       11.381110        7.517661
  C           32.676771       28.916769       31.373365
  O           33.801439       29.672616       30.906871
  C           34.883176       29.595695       31.717074
  O           34.953186       28.967387       32.763031
  O           35.877180       30.344430       31.169486
  C           37.074707       30.351907       31.929994
  H           32.339154       29.286391       32.347374
  H           31.860769       29.038721       30.655125
  H           32.923940       27.855318       31.434436
  H           37.806139       30.986035       31.411064
  H           36.897460       30.785134       32.924880
  H           37.484249       29.344264       32.012042
  C           11.706957       15.865466       10.517221
  O           12.794453       16.446159        9.786502
  C           13.693847       17.088993       10.567754
  O           13.634926       17.205920       11.782891
  O           14.671487       17.588663        9.765851
  C           15.682323       18.295528       10.466601
  H           11.137176       16.638904       11.042999
  H           11.041548       15.369865        9.804332
  H           12.072345       15.116868       11.222624
  H           16.414042       18.662632        9.734329
  H           15.255928       19.166814       10.984238
  H           16.194290       17.637541       11.169981
  C            8.278655       31.846401       11.726305
  O            7.476771       33.029523       11.621397
  C            7.604424       33.869206       12.675503
  O            8.311032       33.687809       13.656064
  O            6.804773       34.947101       12.458246
  C            6.843178       35.908818       13.500419
  H            7.989250       31.259257       12.604261
  H            8.110340       31.238496       10.832593
  H            9.338896       32.101855       11.772465
  H            6.162858       36.729186       13.234787
  H            6.490236       35.469317       14.444437
  H            7.849635       36.314122       13.612549
  C           34.238427       25.832582       18.435889
  O           35.620819       26.207833       18.391392
  C           35.857192       27.468370       18.824605
  O           35.015022       28.261560       19.218686
  O           37.193739       27.702510       18.739047
  C           37.576526       29.001299       19.162275
  H           33.640180       26.481371       17.787450
  H           34.150972       24.804540       18.072461
  H           33.862063       25.867360       19.459921
  H           38.665108       29.092035       19.047579
  H           37.105077       29.767754       18.530466
  H           37.323559       29.153530       20.212338
  C           10.920121       26.828951       31.774237
  O           11.319375       28.009137       31.066030
  C           12.620606       28.006311       30.692815
  O           13.429506       27.117924       30.916753
  O           12.874486       29.166622       30.031208
  C           14.216011       29.291708       29.587176
  H           11.490295       26.723544       32.703264
  H            9.860211       26.923917       32.027559
  H           11.045094       25.943029       31.148918
  H           14.318982       30.258451       29.076094
  H           14.907641       29.285921       30.441878
  H           14.463059       28.497299       28.881711
  C            7.086813       10.572575       19.774935
  O            7.559868        9.895112       20.945859
  C            6.722816        9.990006       22.005500
  O            5.657708       10.588980       22.027309
  O            7.275284        9.309136       23.044583
  C            6.492988        9.335126       24.227731
  H            6.977764       11.645383       19.965958
  H            7.824627       10.436026       18.978954
  H            6.138696       10.147775       19.440092
  H            7.025733        8.768354       25.003200
  H            6.370856       10.367020       24.587143
  H            5.523372        8.865255       24.057832
  C           31.853498        9.300453       11.486467
  O           32.273285        7.995017       11.070037
  C           33.473626        7.622661       11.573060
  O           34.183002        8.293506       12.308214
  O           33.757486        6.375054       11.113276
  C           35.001493        5.866077       11.567026
  H           32.562355       10.062214       11.145084
  H           30.879069        9.507065       11.034361
  H           31.743734        9.342437       12.571681
  H           35.139451        4.864916       11.136857
  H           35.828674        6.500791       11.218014
  H           35.008519        5.781353       12.654487
  C           30.174197        9.308791       19.377134
  O           30.503876       10.672302       19.670305
  C           31.537653       10.809175       20.533480
  O           32.163446        9.897536       21.054056
  O           31.755449       12.137180       20.727045
  C           32.818886       12.419208       21.622624
  H           29.867666        8.780630       20.286191
  H           29.336107        9.302844       18.674162
  H           31.018504        8.800031       18.908295
  H           32.907614       13.509954       21.716443
  H           32.602087       12.010726       22.620141
  H           33.760415       12.025527       21.237479
  C           20.375944        5.917721       36.420689
  O           21.169450        4.768363       36.099561
  C           21.650057        4.774671       34.834066
  O           21.453628        5.642393       33.996108
  O           22.384045        3.644540       34.653608
  C           22.944492        3.526027       33.355781
  H           19.494166        5.972375       35.773556
  H           20.039235        5.822449       37.457101
  H           20.967540        6.831053       36.335019
  H           23.506952        2.583708       33.310248
  H           22.151540        3.483390       32.595314
  H           23.630380        4.350438       33.156525
  C           38.491070        7.477347       28.827039
  O           37.832860        6.240588       29.128677
  C           36.633918        6.396112       29.737653
  O           36.113549        7.460807       30.036551
  O           36.111045        5.162022       29.965964
  C           34.846972        5.185010       30.609463
  H           38.699758        8.038447       29.744054
  H           39.442091        7.248392       28.337408
  H           37.888972        8.077845       28.142656
  H           34.517468        4.147325       30.754508
  H           34.926498        5.655908       31.599832
  H           34.110516        5.700650       29.991768
  C           12.417427       29.758014        7.765266
  O           13.136498       30.924290        7.345104
  C           14.452285       30.896431        7.662012
  O           15.028442       29.997261        8.256349
  O           15.021551       32.045682        7.210728
  C           16.409753       32.144335        7.485797
  H           12.453381       29.652718        8.854724
  H           11.372423       29.872841        7.462972
  H           12.817382       28.863884        7.283532
  H           16.769832       33.104043        7.091204
  H           16.589907       32.135904        8.570404
  H           16.957160       31.338895        6.994460
  C           29.443619       24.791473       39.171498
  O           30.709799       24.290542       39.618328
  C           31.767548       25.007469       39.171470
  O           31.713800       25.990288       38.446985
  O           32.901707       24.440838       39.662503
  C           34.092082       25.099831       39.260963
  H           29.378151       24.758664       38.078823
  H           28.657672       24.152559       39.584628
  H           29.282628       25.809277       39.531575
  H           34.944790       24.564549       39.700011
  H           34.200384       25.068741       38.167252
  H           34.103066       26.128478       39.623681
  C            8.649782       18.970175        5.522657
  O            7.301627       19.013081        6.006844
  C            7.155047       19.727333        7.147396
  O            8.048232       20.295693        7.758040
  O            5.842480       19.697530        7.500637
  C            5.553097       20.410852        8.692245
  H            9.308743       18.490823        6.254293
  H            8.664537       18.377738        4.603200
  H            9.007915       19.974516        5.289122
  H            4.477190       20.319557        8.893464
  H            6.094433       19.974937        9.544204
  H            5.796797       21.467727        8.576377
  C           19.271409       25.040702       10.020801
  O           20.488693       24.316467        9.802845
  C           20.868130       23.558822       10.858545
  O           20.277972       23.466739       11.924816
  O           22.024000       22.922663       10.530267
  C           22.534692       22.093082       11.561524
  H           19.380970       25.739041       10.857233
  H           19.048555       25.615366        9.117088
  H           18.442154       24.354993       10.204212
  H           23.466205       21.634798       11.202835
  H           22.773187       22.689285       12.454027
  H           21.826618       21.299032       11.802180
  C           12.985146       38.486656       23.541816
  O           12.753108       37.183476       24.091071
  C           13.212662       36.175062       23.313632
  O           13.771003       36.298827       22.233522
  O           12.939439       34.999176       23.939045
  C           13.369132       33.854116       23.220226
  H           12.469899       38.599551       22.582089
  H           12.584502       39.228244       24.239048
  H           14.054558       38.670385       23.423065
  H           13.096813       32.962718       23.801305
  H           12.857507       33.793655       22.248895
  H           14.451947       33.866466       23.089228
  C            5.425113       38.383044       32.404949
  O            5.408190       37.048494       31.882942
  C            4.356417       36.310373       32.308913
  O            3.478579       36.685469       33.072066
  O            4.448931       35.076155       31.746198
  C            3.400481       34.196128       32.118765
  H            5.500391       38.370420       33.497411
  H            6.303603       38.896499       32.003426
  H            4.534668       38.931134       32.091573
  H            3.570062       33.231430       31.621775
  H            3.409251       34.023093       33.204528
  H            2.435669       34.589071       31.795449
  C           30.374828       18.511458       29.635845
  O           30.934484       17.210460       29.416784
  C           31.237983       16.959158       28.121702
  O           31.066239       17.722872       27.183116
  O           31.760965       15.706574       28.044102
  C           32.119376       15.315415       26.728413
  H           29.433544       18.625186       29.087803
  H           30.168287       18.619672       30.704597
  H           31.081771       19.289818       29.342778
  H           32.520861       14.293993       26.772067
  H           31.235228       15.303374       26.074931
  H           32.890050       15.975204       26.327738
  C           31.799960       14.013914       16.027241
  O           30.924347       14.671498       15.102749
  C           30.293817       13.825932       14.254250
  O           30.423940       12.611105       14.223218
  O           29.495196       14.562696       13.437009
  C           28.776166       13.789952       12.489189
  H           32.597827       13.484973       15.495331
  H           32.256040       14.774919       16.667133
  H           31.242327       13.322179       16.661315
  H           28.172187       14.473502       11.877332
  H           29.467940       13.258842       11.819659
  H           28.107349       13.090077       12.991841
  C            9.051119        7.272986       38.753719
  O            9.972664        6.470486       38.005022
  C           11.156836        6.273913       38.630800
  O           11.473318        6.718952       39.724180
  O           11.936847        5.500910       37.829208
  C           13.217889        5.222807       38.371507
  H            9.460518        8.274080       38.925486
  H            8.130593        7.370848       38.170919
  H            8.806185        6.794316       39.703657
  H           13.768358        4.604048       37.650036
  H           13.784406        6.153314       38.520217
  H           13.127368        4.669006       39.306874
  C            2.772124       19.955253       34.045455
  O            2.577669       18.596578       34.457755
  C            3.531286       17.748576       34.006086
  O            4.484895       18.049574       33.303426
  O            3.241094       16.501625       34.463689
  C            4.169058       15.510052       34.053607
  H            2.742076       20.036537       32.953764
  H            1.959080       20.558400       34.459910
  H            3.717200       20.343456       34.429682
  H            3.843618       14.545132       34.465213
  H            4.181770       15.422952       32.957636
  H            5.165276       15.733682       34.437455
  C           31.528073       33.007486       10.580064
  O           31.625281       32.065075       11.655337
  C           32.832741       32.059675       12.267308
  O           33.790194       32.759455       11.971856
  O           32.798857       31.135536       13.263962
  C           34.014931       31.026476       13.986299
  H           32.253222       32.773431        9.793504
  H           30.522425       32.939312       10.155064
  H           31.677915       34.025417       10.944570
  H           33.887491       30.254452       14.757102
  H           34.831444       30.709112       13.321854
  H           34.256981       31.970493       14.476242
  C           24.707495        2.034529        4.228203
  O           23.970047        2.622323        3.149098
  C           23.625365        3.913529        3.364692
  O           23.880375        4.566879        4.365594
  O           22.939750        4.356594        2.277435
  C           22.513485        5.705837        2.379118
  H           24.110888        2.028236        5.146527
  H           24.940666        1.000005        3.959889
  H           25.646714        2.567076        4.388708
  H           21.966841        5.962480        1.461668
  H           21.826116        5.830548        3.228159
  H           23.370797        6.373873        2.471550
  C           18.243042       23.714616        7.110633
  O           18.416459       22.413261        6.536001
  C           18.810304       22.437770        5.241093
  O           19.006342       23.439842        4.569438
  O           18.943593       21.153880        4.814058
  C           19.350708       21.039402        3.459934
  H           17.464528       24.271885        6.578968
  H           17.930090       23.590261        8.151400
  H           19.182873       24.269674        7.099243
  H           19.420798       19.971600        3.212374
  H           18.603647       21.492707        2.792614
  H           20.330661       21.495464        3.313303
  C           27.364823        2.833109        6.672330
  O           28.060700        2.328126        5.525793
  C           28.112454        3.200700        4.492141
  O           27.624229        4.320963        4.473513
  O           28.795997        2.612595        3.474594
  C           28.918133        3.427329        2.319695
  H           26.321379        3.055251        6.424988
  H           27.379982        2.062632        7.448690
  H           27.860679        3.723499        7.063267
  H           29.474585        2.862739        1.559432
  H           27.926660        3.663213        1.907095
  H           29.470717        4.339313        2.549338
  C           20.316017       15.459992       31.289028
  O           20.179859       14.069309       31.607243
  C           20.899573       13.253318       30.801842
  O           21.608027       13.606631       29.870734
  O           20.692665       11.970979       31.203459
  C           21.392533       11.008377       30.431395
  H           19.958111       15.661615       30.273867
  H           19.704545       16.033379       31.991830
  H           21.353853       15.780562       31.396879
  H           21.154142       10.012189       30.827852
  H           21.064351       11.042123       29.382559
  H           22.469469       11.164225       30.507029
  C           11.462356       19.550427       32.821982
  O           12.266017       18.375188       32.985511
  C           13.521633       18.501531       32.495648
  O           13.981805       19.492204       31.947462
  O           14.181074       17.332540       32.712669
  C           15.517806       17.331604       32.237648
  H           11.339110       19.790454       31.760616
  H           10.474936       19.351960       33.248846
  H           11.902345       20.395744       33.354288
  H           15.956956       16.347995       32.452262
  H           15.540584       17.481552       31.148659
  H           16.107490       18.094511       32.747596
  C           22.088141       21.025603       22.356763
  O           20.780007       21.191075       21.795333
  C           20.788319       21.636575       20.517068
  O           21.781513       21.899432       19.855123
  O           19.499576       21.747935       20.098453
  C           19.368120       22.214079       18.765063
  H           22.621412       21.981729       22.384055
  H           21.976905       20.661975       23.382434
  H           22.659971       20.287404       21.791454
  H           18.297480       22.276220       18.527854
  H           19.795586       23.222090       18.664631
  H           19.839278       21.520647       18.067236
  C           11.037097       12.596886       24.737856
  O           10.060324       11.551666       24.652832
  C           10.595574       10.315954       24.514912
  O           11.787501       10.052985       24.452789
  O            9.577165        9.417525       24.450349
  C           10.006634        8.073928       24.299342
  H           11.638924       12.639517       23.823915
  H           10.510540       13.549100       24.850222
  H           11.678882       12.455120       25.609357
  H            9.115975        7.433096       24.249731
  H           10.564673        7.950301       23.360082
  H           10.610225        7.764981       25.153760
  C           17.068132        7.985921       31.928082
  O           17.506812        8.996468       31.011482
  C           17.430690       10.253126       31.508992
  O           17.026869       10.561709       32.620480
  O           17.874911       11.114352       30.555338
  C           17.841723       12.475952       30.952131
  H           16.015264        8.132705       32.191184
  H           17.170243        7.012726       31.439140
  H           17.687914        7.984846       32.826619
  H           18.209723       13.085559       30.115857
  H           16.810738       12.789292       31.170734
  H           18.489325       12.640998       31.814205
  C            8.083947       15.266311       39.007375
  O            8.991916       14.294624       38.473319
  C            9.781550       14.773290       37.483441
  O            9.763083       15.911025       37.037440
  O           10.594832       13.767012       37.065737
  C           11.476304       14.139505       36.018475
  H            7.397218       15.621705       38.231876
  H            7.496821       14.788470       39.797028
  H            8.629444       16.104321       39.445177
  H           12.079570       13.261791       35.749984
  H           10.909540       14.445463       35.127370
  H           12.146672       14.935546       36.345165
  C           15.890446       19.347740       38.902754
  O           16.254977       18.325319       37.967033
  C           16.979557       17.320620       38.512984
  O           17.329014       17.240598       39.681391
  O           17.257746       16.418344       37.534715
  C           18.023045       15.309311       37.978409
  H           16.782655       19.825110       39.321538
  H           15.309089       20.106715       38.371170
  H           15.269257       18.936691       39.700665
  H           18.199372       14.648828       37.118716
  H           19.000965       15.641313       38.355697
  H           17.481448       14.749335       38.741887
  C           27.191042       12.725742       26.852764
  O           28.033630       12.827107       28.007567
  C           27.367712       13.150395       29.140942
  O           26.166819       13.357787       29.233371
  O           28.267313       13.211486       30.158531
  C           27.693738       13.549013       31.411363
  H           26.705171       13.684457       26.642779
  H           27.816001       12.459361       25.995404
  H           26.443227       11.942252       26.988474
  H           28.497739       13.579932       32.159044
  H           27.233202       14.546510       31.368871
  H           26.964707       12.796808       31.715502
  C           12.550868       37.709120       16.645086
  O           11.828646       36.518931       16.985152
  C           11.124781       36.619405       18.137098
  O           11.077148       37.599361       18.865875
  O           10.484801       35.438423       18.347350
  C            9.709166       35.410107       19.534821
  H           13.288552       37.948466       17.418284
  H           13.080532       37.531134       15.704673
  H           11.866763       38.547229       16.499918
  H            9.243339       34.418752       19.616185
  H           10.348658       35.556470       20.417164
  H            8.920653       36.162843       19.496939
  C            5.338906       21.411853       26.048214
  O            6.525231       22.202213       25.900692
  C            7.546037       21.806080       26.696641
  O            7.517717       20.878406       27.491826
  O            8.607198       22.623491       26.463667
  C            9.750550       22.315486       27.244934
  H            4.954301       21.478294       27.071427
  H            4.578892       21.804807       25.366623
  H            5.533099       20.371239       25.781922
  H           10.542890       23.032140       26.989975
  H            9.527288       22.425377       28.315905
  H           10.107630       21.308880       27.023489
  C           19.099730       37.806913       25.117322
  O           18.168105       38.761171       25.641979
  C           16.938925       38.247234       25.881740
  O           16.592480       37.092337       25.682017
  O           16.153380       39.240237       26.377083
  C           14.826744       38.830569       26.668134
  H           18.753284       37.416771       24.154480
  H           20.056883       38.313043       24.961466
  H           19.254980       36.990239       25.824741
  H           14.276129       39.699996       27.051954
  H           14.320151       38.485807       25.755225
  H           14.823730       38.052023       27.432109
  C           24.852997        7.251037       28.772814
  O           25.563302        6.145975       29.345618
  C           25.092820        4.936935       28.959136
  O           24.151157        4.740867       28.205128
  O           25.844959        3.977230       29.560596
  C           25.448771        2.653388       29.239694
  H           23.801461        7.235454       29.078313
  H           25.306313        8.176487       29.139757
  H           24.932826        7.238342       27.684253
  H           26.107928        1.958642       29.777505
  H           24.417666        2.467502       29.573113
  H           25.550136        2.470656       28.169117
  C           14.577881       19.420448       27.773634
  O           14.572893       20.549490       26.891003
  C           13.448342       20.652198       26.144453
  O           12.498544       19.883417       26.168077
  O           13.560845       21.755455       25.357899
  C           12.440584       21.975976       24.515946
  H           14.517272       18.485551       27.206541
  H           15.518738       19.426376       28.331625
  H           13.755189       19.485707       28.488070
  H           12.632021       22.878842       23.920475
  H           12.308532       21.134386       23.820829
  H           11.539263       22.135307       25.109271
  C           15.784613       12.449943       38.709776
  O           15.729700       13.671273       37.962020
  C           15.352803       13.503975       36.672656
  O           15.081846       12.439641       36.136487
  O           15.334390       14.724762       36.074458
  C           14.956831       14.687765       34.707498
  H           16.520347       11.763874       38.276990
  H           16.092808       12.688037       39.731992
  H           14.801445       11.977386       38.749416
  H           14.980673       15.714317       34.317596
  H           15.671863       14.088554       34.125625
  H           13.943897       14.297927       34.598910
  C           16.634392       26.439926       21.646012
  O           17.188338       27.122989       20.514477
  C           18.150761       26.420631       19.871877
  O           18.558554       25.311366       20.183223
  O           18.590880       27.165819       18.823312
  C           19.612962       26.540045       18.064197
  H           17.406807       26.247207       22.398032
  H           15.869278       27.081763       22.092382
  H           16.161340       25.505390       21.338825
  H           19.902511       27.220996       17.252490
  H           20.500932       26.359765       18.687019
  H           19.250658       25.609631       17.625034
  C           32.080984        5.871726        8.747176
  O           33.324957        6.550791        8.959783
  C           34.410888        5.754866        8.819221
  O           34.397024        4.563276        8.547886
  O           35.520627        6.508957        9.039051
  C           36.736318        5.786615        8.925833
  H           31.949680        5.066635        9.477853
  H           31.269979        6.593958        8.878526
  H           32.026311        5.475845        7.731406
  H           37.565643        6.477916        9.127636
  H           36.777972        4.981453        9.673415
  H           36.853789        5.387450        7.917534
  C            5.888856       27.688869       24.295975
  O            7.169632       28.125302       23.823811
  C            8.198287       27.762060       24.625325
  O            8.107395       27.131324       25.668210
  O            9.350607       28.226446       24.073051
  C           10.512843       27.914495       24.824313
  H            5.666508       28.128514       25.274021
  H            5.129012       28.025184       23.584547
  H            5.848733       26.599433       24.350925
  H           11.381888       28.337140       24.302269
  H           10.462074       28.373240       25.822249
  H           10.643657       26.834180       24.899198
  C           26.706686        2.057169       20.870347
  O           26.888060        2.565302       19.542678
  C           27.928435        2.004796       18.882412
  O           28.682732        1.150820       19.324522
  O           27.993849        2.561350       17.643675
  C           29.053522        2.059689       16.844971
  H           27.588343        2.261754       21.486890
  H           25.846811        2.565077       21.316713
  H           26.498540        0.985867       20.848266
  H           29.024795        2.574385       15.875093
  H           30.024892        2.274733       17.313048
  H           28.932666        0.989145       16.674296
  C           32.576031       11.282897       27.205444
  O           33.401279       11.647297       28.318987
  C           34.173328       10.634966       28.779015
  O           34.201876        9.496034       28.336615
  O           34.907229       11.102401       29.823714
  C           35.762140       10.130447       30.404173
  H           31.877876       10.486895       27.485195
  H           31.997202       12.161599       26.906379
  H           33.188310       10.970819       26.357375
  H           36.300660       10.601717       31.237421
  H           35.175660        9.294024       30.810789
  H           36.491621        9.775570       29.674982
  C           27.966176        6.050798       30.815342
  O           29.177998        5.512790       30.271436
  C           29.700739        4.500452       31.002472
  O           29.236761        4.050154       32.039611
  O           30.835987        4.075179       30.386962
  C           31.489058        3.010967       31.060350
  H           28.141803        6.470232       31.811600
  H           27.622720        6.854231       30.157213
  H           27.188830        5.285601       30.856670
  H           32.391436        2.748352       30.491890
  H           31.802805        3.325366       32.066142
  H           30.842496        2.133940       31.111149
  C            5.020428        8.936977       37.158975
  O            5.795289        9.498196       36.092005
  C            5.238981       10.599964       35.536012
  O            4.176860       11.109621       35.861357
  O            6.063132       11.038227       34.547477
  C            5.588871       12.194472       33.876156
  H            4.037684        8.616999       36.796858
  H            5.550334        8.060132       37.542304
  H            4.910050        9.654357       37.974255
  H            6.316148       12.460963       33.097406
  H            4.627413       11.988135       33.384299
  H            5.499149       13.031802       34.569430
  C           31.510023       12.073580       34.766647
  O           30.170843       12.044731       34.257172
  C           29.271301       12.667381       35.054436
  O           29.513781       13.211568       36.121565
  O           28.048984       12.576800       34.466017
  C           27.008116       13.190954       35.208923
  H           31.568409       11.558158       35.731131
  H           32.157911       11.552332       34.055914
  H           31.864015       13.101641       34.862986
  H           26.068038       13.056674       34.656997
  H           26.896322       12.706729       36.189702
  H           27.195446       14.259563       35.321986
  C            8.115969       15.132017       11.514536
  O            7.109041       14.289515       12.089068
  C            6.195772       13.844515       11.194409
  O            6.172483       14.108043       10.001215
  O            5.303868       13.058586       11.854199
  C            4.283008       12.528346       11.024024
  H            7.666908       16.032738       11.082857
  H            8.803295       15.435030       12.309751
  H            8.685586       14.590710       10.756893
  H            3.615264       11.919635       11.648515
  H            3.686078       13.338476       10.581006
  H            4.710366       11.891428       10.248460
  C           12.906926       12.829555       30.268257
  O           12.309814       13.655740       31.275568
  C           10.984788       13.436348       31.444899
  O           10.305220       12.632813       30.823433
  O           10.538417       14.269921       32.421838
  C            9.152240       14.142361       32.695224
  H           12.451817       13.021035       29.290754
  H           13.970839       13.076919       30.209095
  H           12.814455       11.773988       30.530418
  H            8.891844       14.858133       33.486593
  H            8.558458       14.392705       31.804353
  H            8.920760       13.135998       33.046578
  C           32.337787        3.345099       18.003147
  C           32.304139        4.723967       18.620716
  O           32.978119        5.667216       17.784635
  C           34.320671        5.757859       17.979414
  O           34.977007        5.127321       18.784365
  O           34.803462        6.684713       17.115439
  C           36.213385        6.888621       17.212075
  H           31.908422        3.364564       16.991136
  H           31.767065        2.631745       18.612985
  H           33.358071        2.978727       17.907787
  H           31.258691        5.065324       18.709671
  H           32.714459        4.717582       19.640862
  H           36.486871        7.252431       18.213997
  H           36.497410        7.649441       16.481608
  H           36.751325        5.967830       16.977201
  C           24.020922       19.687437       14.365704
  C           25.097840       19.080196       13.496620
  O           24.719922       17.770306       13.067240
  C           25.033979       16.765802       13.928019
  O           25.597280       16.882600       14.998230
  O           24.609911       15.600975       13.378527
  C           24.879664       14.450029       14.179375
  H           23.057949       19.700115       13.835213
  H           24.281353       20.717272       14.645198
  H           23.873955       19.109437       15.275988
  H           25.227795       19.689985       12.586307
  H           26.071742       19.076494       14.007111
  H           25.962573       14.325038       14.329995
  H           24.503475       13.571930       13.649729
  H           24.363539       14.520705       15.139072
  C            8.608548        9.012150       33.357941
  C            8.561881       10.304896       32.576640
  O            9.871303       10.678852       32.142393
  C           10.594176       11.401565       33.038909
  O           10.230475       11.751356       34.144200
  O           11.799708       11.670182       32.479322
  C           12.669750       12.433760       33.315248
  H            9.076897        8.216603       32.760735
  H            7.596490        8.690683       33.638826
  H            9.200950        9.118604       34.264598
  H            7.950821       10.167638       31.668254
  H            8.079791       11.106605       33.154527
  H           12.228268       13.415522       33.543804
  H           13.604763       12.595741       32.774309
  H           12.893787       11.889340       34.234930
  C           18.053449       22.375445       26.890533
  C           19.034855       21.630421       26.015557
  O           18.477820       20.389234       25.577188
  C           18.649053       19.344414       26.430200
  O           19.223526       19.373608       27.500447
  O           18.066502       18.254191       25.872841
  C           18.173423       17.070984       26.664919
  H           17.101458       22.526195       26.361489
  H           18.455038       23.356811       27.177147
  H           17.827652       21.816867       27.796793
  H           19.248239       22.222849       25.109524
  H           19.998911       21.487183       26.524652
  H           19.228377       16.795109       26.813120
  H           17.678273       16.257859       26.129425
  H           17.672544       17.205836       27.625823
  C           32.114666       10.270615       14.984720
  C           32.363800       10.284864       16.475199
  O           33.606043       10.926349       16.772402
  C           34.699006       10.118652       16.731687
  O           34.708998        8.930707       16.476761
  O           35.784362       10.874063       17.031616
  C           37.014176       10.148560       17.029837
  H           32.147791       11.291508       14.577805
  H           31.132288        9.834311       14.758726
  H           32.876256        9.695765       14.461434
  H           31.574079       10.868867       16.977873
  H           32.316348        9.271894       16.900335
  H           36.996318        9.349244       17.785995
  H           37.818435       10.842751       17.283541
  H           37.215017        9.736100       16.038908
  C           27.727938       36.464579        2.372870
  C           27.572826       35.244296        3.250737
  O           28.849021       34.774536        3.690796
  C           29.475814       33.918915        2.840123
  O           29.053358       33.526437        1.770641
  O           30.661988       33.573326        3.398834
  C           31.432610       32.666933        2.609280
  H           28.286321       37.251330        2.900252
  H           26.746051       36.863890        2.084864
  H           28.285329       36.232722        1.467410
  H           26.999945       35.508710        4.155885
  H           27.000624       34.454233        2.743306
  H           30.891371       31.719989        2.463139
  H           32.359705       32.452800        3.145695
  H           31.687264       33.116741        1.647394
  C           32.390076        8.104240       31.734033
  C           31.607325        7.461905       30.612201
  O           30.920554        8.453180       29.844921
  C           29.696059        8.806349       30.318718
  O           29.148968        8.360046       31.307558
  O           29.185235        9.747634       29.487068
  C           27.888802       10.212361       29.864016
  H           33.084642        8.858808       31.337667
  H           32.967960        7.350797       32.286187
  H           31.731973        8.615519       32.433887
  H           32.299466        6.947600       29.923847
  H           30.920160        6.691688       30.991238
  H           27.160757        9.387226       29.853936
  H           27.570291       10.959695       29.133850
  H           27.921460       10.684409       30.848142
  C            9.531632       25.214900       29.015295
  C            8.416507       26.199806       29.280358
  O            7.156083       25.528803       29.344281
  C            6.534246       25.349727       28.148517
  O            6.944297       25.706041       27.061688
  O            5.365456       24.703039       28.381592
  C            4.598407       24.449314       27.204282
  H            9.536014       24.422174       29.777178
  H           10.507277       25.719339       29.027903
  H            9.407872       24.726852       28.050519
  H            8.572246       26.681718       30.260615
  H            8.409890       27.009296       28.536193
  H            4.317543       25.392222       26.711291
  H            3.683453       23.931194       27.500105
  H            5.151684       23.805951       26.516992
  C            3.496826       34.221903       13.038258
  C            3.882089       32.959535       12.302188
  O            4.197419       33.247787       10.938195
  C            3.135833       33.260559       10.088800
  O            1.975649       33.048577       10.380924
  O            3.600784       33.549013        8.848150
  C            2.586272       33.592298        7.844311
  H            4.295428       34.973586       12.960103
  H            3.314772       34.012303       14.101002
  H            2.598739       34.668222       12.615719
  H            4.790456       32.527897       12.756014
  H            3.100244       32.190902       12.385987
  H            2.088999       32.615121        7.750265
  H            3.062541       33.827991        6.889996
  H            1.857939       34.374473        8.068211
  C           30.468695       26.020938       35.492104
  C           31.908203       26.010784       35.032197
  O           31.983149       26.113454       33.608525
  C           31.899545       24.933733       32.937803
  O           31.775504       23.830465       33.431477
  O           31.983632       25.203742       31.611671
  C           31.913150       24.046188       30.778664
  H           29.952525       26.919992       35.125813
  H           30.410653       26.005113       36.588863
  H           29.923330       25.162345       35.105200
  H           32.435606       26.887984       35.444222
  H           32.443212       25.125670       35.405613
  H           32.748134       23.361604       30.991138
  H           31.991933       24.370791       29.738700
  H           30.955871       23.537247       30.909033
  C           37.190706       22.821908       15.794695
  C           37.715463       23.977467       16.615130
  O           36.683347       24.937701       16.851107
  C           36.528912       25.872997       15.876442
  O           37.178458       25.962959       14.853555
  O           35.518840       26.697354       16.248989
  C           35.246052       27.740073       15.312440
  H           36.319691       22.364061       16.285216
  H           37.964890       22.053536       15.665300
  H           36.863561       23.151415       14.810469
  H           38.044200       23.612123       17.602984
  H           38.598360       24.435219       16.146028
  H           36.124147       28.391519       15.187664
  H           34.424592       28.343280       15.705436
  H           34.937627       27.322192       14.351894
  C           29.580927       12.022491       38.703669
  C           28.599934       10.876891       38.798813
  O           29.198805        9.753195       39.448166
  C           29.893561        8.915879       38.632804
  O           30.040149        9.034943       37.432539
  O           30.395000        7.914309       39.397014
  C           31.151520        6.949588       38.665037
  H           29.961106       12.289223       39.700272
  H           29.103704       12.907518       38.261533
  H           30.443501       11.755745       38.096122
  H           27.735526       11.178707       39.414530
  H           28.196980       10.609722       37.811216
  H           30.523943        6.454220       37.908890
  H           31.505232        6.191405       39.367280
  H           32.020098        7.417655       38.197184
  C            9.173860        6.585489       16.258891
  C            7.951869        6.348323       15.401984
  O            7.532021        7.562679       14.775831
  C            6.697411        8.338173       15.517879
  O            6.285380        8.091508       16.633983
  O            6.398702        9.441621       14.788650
  C            5.518987       10.352208       15.448750
  H            9.982982        7.031449       15.662787
  H            9.534928        5.642387       16.690967
  H            8.959758        7.277550       17.070994
  H            8.197921        5.639801       14.592752
  H            7.138992        5.885901       15.980341
  H            4.551841        9.873247       15.663752
  H            5.341824       11.197994       14.780649
  H            5.974480       10.728296       16.367164
  C            1.716203        3.213518       27.827955
  C            2.993916        2.766232       28.499659
  O            2.712653        1.841948       29.553030
  C            2.432881        2.405450       30.758348
  O            2.407540        3.593725       31.010658
  O            2.189274        1.402992       31.638309
  C            1.882146        1.852161       32.958430
  H            1.148500        2.346226       27.461325
  H            1.934242        3.874930       26.978548
  H            1.069026        3.745608       28.522464
  H            3.630487        2.236254       27.770755
  H            3.582000        3.624083       28.856517
  H            2.725498        2.416448       33.384267
  H            1.706492        0.973974       33.583757
  H            0.975010        2.460024       32.955672
  C           33.335251       25.256253        6.420646
  C           33.232238       26.127966        7.650810
  O           32.204516       25.650726        8.522033
  C           30.955131       26.113985        8.251799
  O           30.647220       26.881443        7.361574
  O           30.106000       25.569901        9.158193
  C           28.746627       25.975412        8.995512
  H           33.502764       24.207085        6.703641
  H           34.165244       25.583916        5.780139
  H           32.417052       25.284636        5.837204
  H           34.177938       26.083426        8.217438
  H           33.082087       27.183993        7.383674
  H           28.647277       27.064416        9.118802
  H           28.151397       25.486852        9.770180
  H           28.366817       25.662510        8.020712
  C           11.089372       34.129285       33.316069
  C           11.827943       32.951923       32.722661
  O           10.907608       31.989165       32.203932
  C           10.452269       31.079102       33.105626
  O           10.756387       31.012904       34.280117
  O            9.596173       30.248683       32.460565
  C            9.038714       29.230629       33.292193
  H           10.415293       34.577280       32.571879
  H           11.794797       34.898340       33.658751
  H           10.473092       33.825575       34.160023
  H           12.447229       33.291363       31.874919
  H           12.519894       32.503449       33.450105
  H            9.829493       28.579893       33.694948
  H            8.370751       28.620211       32.680379
  H            8.455385       29.673418       34.102171
  C           16.494263       14.716552       11.125938
  C           15.791421       14.603769        9.792861
  O           16.741122       14.515797        8.728282
  C           17.181368       15.708028        8.245199
  O           16.842021       16.810573        8.626691
  O           18.068875       15.451152        7.252754
  C           18.614904       16.622522        6.645676
  H           17.184545       13.873162       11.271212
  H           15.767583       14.721344       11.949597
  H           17.088425       15.626404       11.184586
  H           15.193859       13.676634        9.765674
  H           15.083804       15.431474        9.640276
  H           17.821476       17.225887        6.179390
  H           19.310195       16.307533        5.864360
  H           19.166453       17.213654        7.379676
  C           26.269914       29.877982       28.191972
  C           24.895172       29.290171       28.411888
  O           23.894406       30.105360       27.797938
  C           23.433020       31.130245       28.563009
  O           23.784877       31.401411       29.693923
  O           22.501319       31.800199       27.840724
  C           21.923127       32.910353       28.527784
  H           26.464623       30.013970       27.118428
  H           27.045124       29.220926       28.608898
  H           26.360820       30.857502       28.657350
  H           24.835553       28.297072       27.934815
  H           24.692153       29.131595       29.480877
  H           21.402978       32.577177       29.438519
  H           21.190133       33.375668       27.864985
  H           22.687270       33.651618       28.770707
  C           19.853975        9.797105       15.064773
  C           20.767967        9.037784       15.998503
  O           21.967813        9.776046       16.240037
  C           22.958640        9.584707       15.328857
  O           22.914463        8.856312       14.357368
  O           24.014918       10.350739       15.697737
  C           25.140175       10.245690       14.825062
  H           19.636955       10.797628       15.465716
  H           18.905404        9.260580       14.927466
  H           20.314352        9.939461       14.089023
  H           20.272636        8.904203       16.975336
  H           20.980391        8.027629       15.619608
  H           25.521199        9.213544       14.802805
  H           25.930099       10.894647       15.209737
  H           24.878435       10.580775       13.819274
  C            5.660276       13.009879       38.956424
  C            5.795352       12.627116       37.500730
  O            6.971511       13.208666       36.933766
  C            6.818295       14.470197       36.450379
  O            5.794692       15.124813       36.454208
  O            8.014708       14.872796       35.955293
  C            8.001038       16.190684       35.405943
  H            6.561539       12.722216       39.516669
  H            4.791631       12.513734       39.410072
  H            5.543682       14.085479       39.073860
  H            5.905837       11.532775       37.413484
  H            4.893768       12.892647       36.929993
  H            7.298899       16.253505       34.560926
  H            9.003981       16.414836       35.035863
  H            7.745375       16.923883       36.173703
  C           29.355238       17.086035       16.643990
  C           28.077774       16.314803       16.405061
  O           27.905730       15.303814       17.400702
  C           28.514959       14.118129       17.133135
  O           29.170051       13.850408       16.145472
  O           28.258981       13.277901       18.166137
  C           28.839587       11.981963       18.016997
  H           29.364764       17.513249       17.657053
  H           29.457861       17.903324       15.917348
  H           30.228084       16.441077       16.563561
  H           27.212831       16.994899       16.487181
  H           28.045345       15.895732       15.388977
  H           28.441655       11.476966       17.123896
  H           28.573732       11.387673       18.894061
  H           29.928069       12.052645       17.965899
  C           12.918482       10.186126       21.449861
  C           12.903136        8.730025       21.045718
  O           13.955553        8.015100       21.697101
  C           15.155566        8.042279       21.058485
  O           15.401409        8.601989       20.008444
  O           16.036590        7.326928       21.800556
  C           17.349614        7.266402       21.242788
  H           12.854910       10.284223       22.543129
  H           12.073171       10.723743       20.999398
  H           13.841340       10.673119       21.140876
  H           11.954985        8.265831       21.366553
  H           12.948382        8.615685       19.953024
  H           17.332334        6.776970       20.257315
  H           17.975295        6.670298       21.910833
  H           17.781265        8.266636       21.167895
  C           13.744347        3.684226       31.817680
  C           13.358788        2.503730       32.678826
  O           12.023671        2.651076       33.167448
  C           11.904268        3.361659       34.320450
  O           12.810370        3.863281       34.955789
  O           10.588217        3.410171       34.643336
  C           10.312351        4.128945       35.845859
  H           13.026611        3.812783       30.994742
  H           14.746506        3.543350       31.390677
  H           13.739976        4.609930       32.389829
  H           13.377881        1.581170       32.073914
  H           14.077557        2.351194       33.496875
  H           10.807138        3.653707       36.706286
  H            9.233498        4.106382       36.015170
  H           10.624252        5.171046       35.750233
  C            5.884725       35.345519       20.149093
  C            5.510479       33.949041       20.589081
  O            6.396669       33.488320       21.611530
  C            7.537975       32.898800       21.166013
  O            7.857358       32.730119       20.005909
  O            8.261939       32.524797       22.249802
  C            9.496373       31.882832       21.929092
  H            5.898048       36.030800       21.008810
  H            5.167847       35.725231       19.408549
  H            6.879976       35.368807       19.709509
  H            4.496554       33.956268       21.024172
  H            5.475593       33.254958       19.736947
  H            9.318276       30.956357       21.362590
  H            9.996671       31.622100       22.864411
  H           10.145606       32.558012       21.367819
  C           10.972813       22.999640       21.511428
  C           11.372536       24.372795       21.999759
  O           11.008644       25.372736       21.045452
  C           11.924840       25.599770       20.066862
  O           12.998376       25.044824       19.940944
  O           11.430570       26.563909       19.251550
  C           12.297222       26.909666       18.170733
  H            9.897196       22.967938       21.285722
  H           11.194942       22.237088       22.270159
  H           11.497118       22.737281       20.594600
  H           10.830286       24.607683       22.931528
  H           12.443182       24.415653       22.246698
  H           13.251592       27.306886       18.548084
  H           11.810305       27.689609       17.581071
  H           12.468618       26.046026       17.524862
  C           23.304020       19.756489        5.842679
  C           23.042192       20.898005        4.887594
  O           23.657782       20.647611        3.622149
  C           24.956469       21.037667        3.522810
  O           25.618050       21.570673        4.391438
  O           25.387577       20.730083        2.274556
  C           26.746595       21.090293        2.025319
  H           22.962419       18.805037        5.410303
  H           22.780068       19.917754        6.794503
  H           24.367199       19.647947        6.048031
  H           21.957888       20.986720        4.703706
  H           23.362612       21.859845        5.313380
  H           26.885920       22.177504        2.123100
  H           26.991311       20.804020        1.000008
  H           27.415877       20.554451        2.701583
  C            9.711865        3.682891       24.068123
  C           10.837102        4.627793       23.714850
  O           11.995563        3.899708       23.301497
  C           12.820702        3.504951       24.307435
  O           12.664644        3.716876       25.493620
  O           13.858765        2.831924       23.752403
  C           14.815439        2.357582       24.700335
  H            9.487726        3.016134       23.223080
  H            8.801666        4.241098       24.325889
  H            9.977787        3.048091       24.911102
  H           10.536373        5.260798       22.862638
  H           11.061457        5.313635       24.544540
  H           15.270429        3.196562       25.248144
  H           15.604823        1.836136       24.154380
  H           14.352010        1.652125       25.393129
  C           35.840264       36.163603       19.754690
  C           37.240321       36.000678       20.299754
  O           38.086874       35.372184       19.334693
  C           38.067395       34.012734       19.345487
  O           37.414461       33.306516       20.087938
  O           38.913245       33.578140       18.378913
  C           38.996696       32.156302       18.277844
  H           35.856837       36.723584       18.808621
  H           35.204481       36.702210       20.470359
  H           35.382512       35.198982       19.544287
  H           37.675121       36.993052       20.508424
  H           37.238758       35.457333       21.255721
  H           39.374858       31.720426       19.214863
  H           39.699999       31.913314       17.478206
  H           38.023734       31.732002       18.021494
  C           11.892101       20.500163        6.790388
  C           12.250031       21.966887        6.856770
  O           13.580467       22.139145        7.349994
  C           13.694342       22.186500        8.704021
  O           12.786879       22.102684        9.507629
  O           15.006552       22.349161        9.004435
  C           15.276319       22.419987       10.404795
  H           12.622347       19.951705        6.178152
  H           10.893838       20.362801        6.353235
  H           11.901592       20.045124        7.778897
  H           12.226297       22.400925        5.842646
  H           11.518489       22.532604        7.451673
  H           14.763736       23.282198       10.857401
  H           16.352430       22.552556       10.537126
  H           14.980018       21.493008       10.900087
  C           25.425565        7.714939        8.311658
  C           26.917341        7.873286        8.494228
  O           27.246493        7.983390        9.880784
  C           27.184464        9.241563       10.392402
  O           26.886814       10.252405        9.787504
  O           27.519331        9.172697       11.704546
  C           27.500171       10.433344       12.374771
  H           25.056092        6.851075        8.882734
  H           25.176867        7.567607        7.251968
  H           24.887329        8.588504        8.674268
  H           27.435108        6.976669        8.112922
  H           27.305205        8.723408        7.914613
  H           28.226774       11.125784       11.923579
  H           27.784605       10.268590       13.416430
  H           26.496444       10.862956       12.355643
  C            7.790471       26.428798       14.571923
  C            7.060166       25.115052       14.728532
  O            7.884833       24.156317       15.394679
  C            8.715486       23.445856       14.586063
  O            8.810103       23.549598       13.379172
  O            9.422736       22.591379       15.365978
  C           10.341083       21.771336       14.642812
  H            8.130594       26.800524       15.549182
  H            7.136978       27.185223       14.116655
  H            8.675976       26.317800       13.949139
  H            6.166034       25.260318       15.358473
  H            6.698007       24.738684       13.760912
  H            9.809297       21.134905       13.919515
  H           10.853719       21.123688       15.357554
  H           11.088700       22.386102       14.137310
  C           14.578624        7.378648        2.474380
  C           13.777764        6.554613        3.455904
  O           14.611606        5.590810        4.103044
  C           14.758887        4.413654        3.438806
  O           14.252277        4.117405        2.374906
  O           15.572417        3.619449        4.177729
  C           15.814174        2.337366        3.597542
  H           15.431274        7.857246        2.977204
  H           13.953716        8.160597        2.022113
  H           14.986867        6.759464        1.677982
  H           13.372814        7.209216        4.246416
  H           12.910509        6.083236        2.971370
  H           14.874639        1.774501        3.490508
  H           16.473287        1.780337        4.267160
  H           16.312528        2.441088        2.631476
  C            9.926829       15.601377       17.814456
  C           11.224194       15.805431       18.562123
  O           11.254588       17.095963       19.175804
  C           11.707247       18.103511       18.382995
  O           12.082559       18.002511       17.231804
  O           11.670983       19.249310       19.107170
  C           12.126566       20.399993       18.395009
  H            9.067612       15.748618       18.484504
  H            9.875067       14.587629       17.394770
  H            9.821442       16.317236       17.001597
  H           11.305072       15.063133       19.374436
  H           12.094064       15.644181       17.909112
  H           13.177280       20.279490       18.090903
  H           12.059560       21.261515       19.063132
  H           11.493709       20.588550       17.525332
  C           32.822618       33.418707       38.825020
  C           32.380439       32.150713       38.131861
  O           31.040391       32.279888       37.651666
  C           30.070262       31.968286       38.551863
  O           30.240402       31.594824       39.695488
  O           28.870126       32.143877       37.945692
  C           27.750138       31.846917       38.780101
  H           32.717421       34.282867       38.153410
  H           33.872398       33.344259       39.139535
  H           32.212974       33.623298       39.702959
  H           33.019328       31.967041       37.251244
  H           32.496363       31.274019       38.785365
  H           27.767206       30.792568       39.094835
  H           26.840119       32.017098       38.200442
  H           27.733343       32.507529       39.649417
  C           27.001681        5.026593       18.767833
  C           28.491152        5.209245       18.589183
  O           29.182042        3.981595       18.831147
  C           29.501496        3.743539       20.131100
  O           29.261425        4.467229       21.077112
  O           30.143581        2.550637       20.188644
  C           30.545023        2.171165       21.505324
  H           26.630599        4.221187       18.117818
  H           26.464010        5.952239       18.521683
  H           26.756910        4.746849       19.790638
  H           28.707222        5.497554       17.546306
  H           28.874741        6.023908       19.220280
  H           31.251408        2.903868       21.923852
  H           31.050814        1.205170       21.441061
  H           29.674478        2.061551       22.155352
  C           18.741684       24.567880       36.433684
  C           18.444651       25.917080       35.821123
  O           18.171984       26.883401       36.838412
  C           16.878852       26.936202       37.255091
  O           15.960241       26.255183       36.844400
  O           16.790543       27.891529       38.213294
  C           15.475831       28.060551       38.744109
  H           19.572420       24.643355       37.149981
  H           19.012503       23.839422       35.657472
  H           17.883618       24.184585       36.982417
  H           19.329096       26.276228       35.267796
  H           17.626881       25.854698       35.088688
  H           14.774095       28.371652       37.955577
  H           15.513383       28.848128       39.500026
  H           15.133731       27.140331       39.222191
  C            3.882987        8.811775       29.459413
  C            4.574561        8.909795       28.119294
  O            4.545303        7.650500       27.443780
  C            5.560713        6.802089       27.756416
  O            6.468103        7.018889       28.534839
  O            5.386106        5.664353       27.039708
  C            6.391081        4.675859       27.267093
  H            2.853840        8.444654       29.337023
  H            3.849491        9.792718       29.952494
  H            4.393230        8.111665       30.118046
  H            4.039003        9.629628       27.477097
  H            5.600083        9.292668       28.223280
  H            7.382909        5.054517       26.977446
  H            6.160468        3.807775       26.645525
  H            6.389985        4.360877       28.312648
  C            1.822655        5.056810       39.026443
  C            2.859023        5.558105       38.047441
  O            3.338613        4.488525       37.229523
  C            4.371510        3.776828       37.754129
  O            4.909946        3.970271       38.826027
  O            4.702098        2.808462       36.864421
  C            5.784930        1.978759       37.286163
  H            1.000128        4.556234       38.495620
  H            1.407752        5.887622       39.613051
  H            2.247116        4.327373       39.713504
  H            2.401494        6.298669       37.369478
  H            3.680356        6.077199       38.562274
  H            6.700516        2.573303       37.424800
  H            5.971173        1.239605       36.503817
  H            5.527208        1.449395       38.205811
  C           23.336707       27.988425       22.031626
  C           24.808772       28.326300       21.980023
  O           25.004027       29.740476       22.050602
  C           24.948468       30.392767       20.858952
  O           24.757795       29.889806       19.769468
  O           25.148697       31.712253       21.098672
  C           25.120205       32.525567       19.925426
  H           22.874150       28.413933       22.933782
  H           23.187480       26.900238       22.040502
  H           22.805157       28.402727       21.177162
  H           25.320782       27.888831       22.854018
  H           25.289836       27.892393       21.091540
  H           25.918230       32.230873       19.227349
  H           25.292691       33.561443       20.225941
  H           24.143627       32.465676       19.440545
  C           25.852523       30.593404       31.770926
  C           27.179015       31.240729       32.095252
  O           27.123599       32.649283       31.858812
  C           27.398612       33.033586       30.583948
  O           27.684619       32.303100       29.656106
  O           27.301787       34.384921       30.528094
  C           27.571268       34.932673       29.237300
  H           25.041788       31.065975       32.343887
  H           25.873656       29.521764       32.011012
  H           25.603909       30.706247       30.717475
  H           27.406107       31.105024       33.166426
  H           28.003222       30.766933       31.542711
  H           28.599599       34.699985       28.922037
  H           27.469462       36.018342       29.301015
  H           26.851252       34.561619       28.504978
  C           22.012315       15.937560       21.735787
  C           22.567690       17.138312       21.005341
  O           21.663290       17.571216       19.986688
  C           21.799508       16.945305       18.787404
  O           22.605072       16.077827       18.513821
  O           20.875712       17.464376       17.941375
  C           20.906125       16.897621       16.631159
  H           21.018585       16.162485       22.149078
  H           22.676320       15.641876       22.559297
  H           21.892599       15.087611       21.066791
  H           22.683159       17.980122       21.709205
  H           23.569715       16.934669       20.600897
  H           21.878716       17.080405       16.149854
  H           20.131116       17.382413       16.033297
  H           20.691684       15.827646       16.670765
  C            4.152128       22.650092       19.737902
  C            4.711278       22.048695       18.469252
  O            6.077265       21.669122       18.650914
  C            6.986712       22.654664       18.426829
  O            6.744613       23.796600       18.089679
  O            8.221158       22.136727       18.642432
  C            9.284321       23.067774       18.438387
  H            4.267254       21.952114       20.579611
  H            3.085617       22.884874       19.619874
  H            4.678616       23.563182       20.008785
  H            4.154843       21.129761       18.217578
  H            4.587548       22.728344       17.613759
  H            9.294991       23.425338       17.397698
  H           10.228095       22.553899       18.634149
  H            9.198446       23.906502       19.132333
  C           32.957242       16.600654       20.415453
  C           31.652640       16.207751       19.761662
  O           30.556056       16.430760       20.650914
  C           30.284106       15.406697       21.502933
  O           30.873474       14.346141       21.567488
  O           29.229673       15.775529       22.271526
  C           28.828230       14.785439       23.218819
  H           32.920076       17.646014       20.754187
  H           33.793762       16.488952       19.712420
  H           33.160057       15.989923       21.293049
  H           31.477684       16.838897       18.873718
  H           31.680379       15.169230       19.401379
  H           28.509786       13.864005       22.708376
  H           27.977557       15.177873       23.780469
  H           29.637581       14.575881       23.921270
  C            3.801208        6.931343        9.087687
  C            4.918080        7.938585        8.939828
  O            5.821834        7.540879        7.906359
  C            6.813655        6.697210        8.297657
  O            6.995388        6.268899        9.420075
  O            7.573640        6.417809        7.210019
  C            8.665679        5.537308        7.476418
  H            3.279967        6.789240        8.130079
  H            3.072170        7.266286        9.837898
  H            4.183278        5.957725        9.388336
  H            4.500093        8.914934        8.640780
  H            5.438237        8.104946        9.894218
  H            9.355857        5.982720        8.208718
  H            9.210734        5.380074        6.542987
  H            8.301640        4.570341        7.829758
  C           38.261545       30.139870       24.385355
  C           38.984796       29.499701       23.223076
  O           38.051635       28.964782       22.281761
  C           37.627237       27.699639       22.542335
  O           37.967907       27.002723       23.477510
  O           36.753966       27.346013       21.567170
  C           36.225639       26.027442       21.712225
  H           37.563339       30.910648       24.028551
  H           38.975001       30.606110       25.078248
  H           37.672695       29.409095       24.936284
  H           39.576426       30.262422       22.688632
  H           39.700346       28.738108       23.565223
  H           37.030475       25.278156       21.669695
  H           35.540792       25.842648       20.881602
  H           35.666459       25.938612       22.645942
  C           23.129889       22.770357       25.292158
  C           22.127832       23.654950       24.587050
  O           22.042042       24.929633       25.228006
  C           21.169504       24.996862       26.268562
  O           20.472285       24.093059       26.684889
  O           21.209478       26.259030       26.762457
  C           20.331877       26.477339       27.867426
  H           24.111807       23.262547       25.342008
  H           23.243132       21.813622       24.764583
  H           22.825389       22.565601       26.316684
  H           22.460076       23.839633       23.551239
  H           21.144278       23.168827       24.513525
  H           19.284750       26.311981       27.572159
  H           20.438422       27.516816       28.185604
  H           20.601773       25.831272       28.705371
  C           21.017301       28.944023       37.634493
  C           22.364757       28.833673       36.959227
  O           22.623071       27.483565       36.567458
  C           23.187422       26.700716       37.525193
  O           23.487364       27.042514       38.651918
  O           23.362893       25.463342       36.999156
  C           23.956054       24.528676       37.901021
  H           20.224004       28.556411       36.979256
  H           20.789841       29.990173       37.880119
  H           20.984978       28.359262       38.551723
  H           22.368789       29.440357       36.037642
  H           23.167219       29.233923       37.595588
  H           24.959901       24.862582       38.204002
  H           24.054663       23.572250       37.382728
  H           23.319134       24.382280       38.775836
  C           10.368557        5.869147       30.989184
  C           10.653665        4.926126       32.135145
  O            9.474950        4.708256       32.913710
  C            9.252581        5.622048       33.895615
  O            9.953224        6.577845       34.163668
  O            8.106148        5.276454       34.531898
  C            7.748223        6.154468       35.599503
  H            9.543021        5.487625       30.371260
  H           11.256490        5.988738       30.353753
  H           10.067413        6.850789       31.349727
  H           10.961493        3.943343       31.739189
  H           11.489391        5.285373       32.752885
  H            8.525382        6.157865       36.378613
  H            6.819464        5.788818       36.043131
  H            7.575904        7.165188       35.223800
  C            1.733456       29.221582       27.557923
  C            2.702009       28.101885       27.861210
  O            3.342955       28.317227       29.120502
  C            4.459195       29.092282       29.076945
  O            4.947597       29.598669       28.086320
  O            4.939265       29.199456       30.340530
  C            6.123469       29.990273       30.445742
  H            0.999733       29.328122       28.369835
  H            1.194416       29.026482       26.620975
  H            2.247691       30.176438       27.467858
  H            2.153314       27.147938       27.940706
  H            3.432136       27.971116       27.049474
  H            6.941827       29.546753       29.858733
  H            6.426101       30.010781       31.495072
  H            5.930333       31.015391       30.122893
  C           18.048541        3.591858       31.214415
  C           18.949588        3.532883       32.426206
  O           18.792629        4.705376       33.228469
  C           19.568845        5.761802       32.867842
  O           20.365837        5.791715       31.951213
  O           19.300234        6.783233       33.718211
  C           20.053630        7.967873       33.457786
  H           17.001492        3.734314       31.518215
  H           18.121481        2.664697       30.629990
  H           18.307947        4.428341       30.568425
  H           18.666726        2.673304       33.057485
  H           19.998984        3.372910       32.139367
  H           21.131910        7.775234       33.563628
  H           19.766097        8.721954       34.193847
  H           19.828063        8.354999       32.461968
  C           19.496584        8.000124        5.031353
  C           18.503363        8.971438        5.626215
  O           17.905351        8.423303        6.803046
  C           16.812471        7.643658        6.587716
  O           16.311760        7.384813        5.511339
  O           16.372019        7.204967        7.792769
  C           15.215945        6.370213        7.718753
  H           20.256006        7.720012        5.775474
  H           20.002563        8.443968        4.163316
  H           19.009344        7.080324        4.713762
  H           19.024761        9.894277        5.932668
  H           17.746800        9.275072        4.888300
  H           14.368084        6.916663        7.278840
  H           14.944042        6.075677        8.734832
  H           15.430983        5.466865        7.144192
  C           16.959417       31.332070       30.196523
  C           17.153913       30.956049       28.745806
  O           17.121560       32.118763       27.915115
  C           15.882923       32.506928       27.510510
  O           14.831490       31.962179       27.782608
  O           16.026037       33.614015       26.740785
  C           14.794759       34.134204       26.238633
  H           17.712039       32.070444       30.508395
  H           17.046245       30.447949       30.842504
  H           15.983643       31.785042       30.360779
  H           18.147346       30.494998       28.611930
  H           16.418966       30.204372       28.423415
  H           14.292107       33.394941       25.596891
  H           15.019752       35.016055       25.634632
  H           14.142430       34.436867       27.060376
  C           20.711338       12.407114       24.193739
  C           21.260071       13.687625       23.608091
  O           22.088372       14.361877       24.557987
  C           21.432150       15.190485       25.413195
  O           20.236367       15.404808       25.434841
  O           22.351700       15.744074       26.241789
  C           21.799611       16.647811       27.199525
  H           21.529108       11.761273       24.544515
  H           20.125708       11.856629       23.445070
  H           20.073531       12.606002       25.052776
  H           21.896491       13.454642       22.737409
  H           20.454465       14.337188       23.236382
  H           21.309842       17.496063       26.697934
  H           22.617326       17.036393       27.810628
  H           21.095982       16.130042       27.854675
  C           30.725411        2.265424        5.353939
  C           31.345955        2.047617        6.714559
  O           30.333396        1.903474        7.713031
  C           29.882151        3.067213        8.252188
  O           30.259244        4.187148        7.969616
  O           28.933565        2.758462        9.170587
  C           28.369056        3.894737        9.825575
  H           30.033090        1.446935        5.109670
  H           31.499840        2.313987        4.576507
  H           30.148783        3.187894        5.324792
  H           31.927604        1.110027        6.711360
  H           32.054921        2.849637        6.966018
  H           29.141806        4.449671       10.378664
  H           27.624072        3.539137       10.540869
  H           27.870648        4.545351        9.103986
  C           30.863239       27.875995       17.126250
  C           31.888215       28.788049       17.759796
  O           32.237974       28.323127       19.065367
  C           31.428937       28.754251       20.069454
  O           30.464599       29.484597       19.955664
  O           31.891263       28.226959       21.229979
  C           31.132769       28.602157       22.380071
  H           31.231882       26.840489       17.099238
  H           30.639676       28.195953       16.099533
  H           29.935409       27.867595       17.694898
  H           32.813654       28.780211       17.159044
  H           31.541160       29.831272       17.778181
  H           31.157202       29.692842       22.524328
  H           31.586097       28.130302       23.254684
  H           30.103258       28.248739       22.292882
  C            5.600170       20.651953       36.686921
  C            5.749621       19.331928       35.966506
  O            4.470749       18.738366       35.731625
  C            3.990228       17.976530       36.750106
  O            4.541835       17.758976       37.810625
  O            2.780629       17.494142       36.372252
  C            2.154692       16.665962       37.352620
  H            4.940635       21.327206       36.123054
  H            6.576566       21.139096       36.812796
  H            5.151930       20.518265       37.669524
  H            6.211077       19.498683       34.978249
  H            6.421128       18.651376       36.509670
  H            2.770312       15.778601       37.563810
  H            1.195656       16.330485       36.951615
  H            1.966649       17.230358       38.268315
  C           17.419708       27.131710       25.280566
  C           17.560493       25.629047       25.203197
  O           16.285028       25.012491       25.013335
  C           15.590691       24.755558       26.153722
  O           15.953827       24.993619       27.288516
  O           14.414858       24.178878       25.802356
  C           13.577324       23.848101       26.910473
  H           16.915067       27.519047       24.383790
  H           18.404586       27.610873       25.363740
  H           16.817625       27.429440       26.136809
  H           18.179342       25.358750       24.330635
  H           18.079596       25.228028       26.085702
  H           14.073647       23.121110       27.570887
  H           12.664561       23.391022       26.521829
  H           13.302721       24.747285       27.465866
  C            6.559483       16.792555       27.253722
  C            6.774523       18.228375       26.834224
  O            8.164676       18.559388       26.864291
  C            8.633606       18.980501       28.069019
  O            7.988996       19.101197       29.091863
  O            9.955343       19.248760       27.928847
  C           10.583750       19.708661       29.125674
  H            7.148666       16.113009       26.621281
  H            5.499159       16.517910       27.171358
  H            6.879919       16.627818       28.280602
  H            6.435634       18.365555       25.793198
  H            6.177718       18.919703       27.446588
  H           10.128929       20.650589       29.467594
  H           11.637055       19.896443       28.905705
  H           10.525348       18.947681       29.906635
  C           35.574061       28.975206       35.394755
  C           34.172064       29.519710       35.542134
  O           33.636666       29.884699       34.268112
  C           33.939029       31.143315       33.852104
  O           34.602151       31.962919       34.456106
  O           33.363861       31.328292       32.638198
  C           33.597332       32.620229       32.076782
  H           35.587546       28.127398       34.694799
  H           35.963602       28.636285       36.364234
  H           36.251018       29.727538       34.994724
  H           33.511709       28.737777       35.954337
  H           34.139061       30.357775       36.253231
  H           33.178168       33.407119       32.721845
  H           33.093631       32.665951       31.108642
  H           34.665401       32.782087       31.917314
  C           28.772918       27.037053        4.862417
  C           30.073654       27.729300        4.526741
  O           30.647282       28.318533        5.695824
  C           30.208984       29.572257        5.986808
  O           29.398363       30.218300        5.352913
  O           30.841820       29.981664        7.113974
  C           30.477811       31.295412        7.538667
  H           28.925904       26.290894        5.655350
  H           28.362346       26.530715        3.978362
  H           28.031797       27.743759        5.230665
  H           30.801477       26.989835        4.151419
  H           29.940449       28.466887        3.722178
  H           30.737950       32.039423        6.770699
  H           31.040738       31.527399        8.445528
  H           29.412367       31.341441        7.773421
  C            8.087531       36.812872       26.882555
  C            9.310023       36.495964       27.712544
  O            9.056349       35.389738       28.581403
  C            8.491762       35.709591       29.776198
  O            8.197745       36.824385       30.159722
  O            8.316237       34.559724       30.473045
  C            7.729841       34.746339       31.761500
  H            7.761962       35.925947       26.320177
  H            8.299903       37.621701       26.170380
  H            7.251006       37.115680       27.509319
  H           10.141110       36.198549       27.050548
  H            9.658668       37.378661       28.267875
  H            8.372365       35.376678       32.394616
  H            7.634874       33.767329       32.236495
  H            6.733120       35.182880       31.669966
  C           33.683840       22.228180       13.358597
  C           32.980956       21.904741       14.656726
  O           31.593580       21.647892       14.428213
  C           30.794270       22.747747       14.423602
  O           31.147765       23.897129       14.597560
  O           29.523093       22.335670       14.193600
  C           28.566250       23.395133       14.165499
  H           33.539402       21.418423       12.628986
  H           34.761274       22.364436       13.523127
  H           33.286007       23.135509       12.908283
  H           33.408965       20.985363       15.091412
  H           33.130919       22.697855       15.403440
  H           28.533752       23.916829       15.133888
  H           27.582433       22.959401       13.977504
  H           28.792625       24.095428       13.358814
  C            7.690142        7.810677       12.032013
  C            8.196193        8.834516       11.042333
  O            9.228218        8.278070       10.224842
  C           10.482583        8.355087       10.743722
  O           10.793074        8.847378       11.810280
  O           11.334565        7.786417        9.855274
  C           12.700391        7.800109       10.271363
  H            7.346269        6.906076       11.510144
  H            6.854862        8.216475       12.618644
  H            8.475889        7.501422       12.718498
  H            7.377553        9.132321       10.365176
  H            8.527686        9.752865       11.548147
  H           13.058401        8.832730       10.399899
  H           13.298128        7.324589        9.490535
  H           12.825839        7.231777       11.195301
  C           37.772584       19.531921       38.720862
  C           39.119139       19.186751       38.128031
  O           38.963380       18.575884       36.845229
  C           38.775185       17.229472       36.864166
  O           38.734639       16.520552       37.850112
  O           38.643826       16.810970       35.581123
  C           38.442374       15.403667       35.448019
  H           37.202254       20.175226       38.035456
  H           37.892143       20.057557       39.677895
  H           37.173758       18.639101       38.889920
  H           39.704248       20.109401       37.973874
  H           39.709181       18.557577       38.810006
  H           39.302106       14.847021       35.850517
  H           38.351800       15.172610       34.384295
  H           37.519690       15.099215       35.946378
  C           21.098483       32.813244        2.874832
  C           19.890588       33.024809        1.991640
  O           19.659194       34.419295        1.779822
  C           18.905360       35.032102        2.731033
  O           18.420846       34.509263        3.714996
  O           18.783417       36.337754        2.386064
  C           18.005911       37.109300        3.302034
  H           21.982091       33.307070        2.445560
  H           21.314996       31.742320        2.987724
  H           20.945538       33.240581        3.863918
  H           20.072902       32.576713        0.999989
  H           19.001793       32.521545        2.398911
  H           16.976434       36.724789        3.359725
  H           17.968043       38.136942        2.933773
  H           18.470441       37.114472        4.290258
  C           14.048153       15.678716        7.061920
  C           13.183115       16.911772        6.939098
  O           11.801274       16.553071        6.869460
  C           11.339453       16.267210        5.623024
  O           11.981506       16.295068        4.591863
  O           10.026205       15.947194        5.730583
  C            9.404188       15.624839        4.486404
  H           13.743942       15.078539        7.931485
  H           15.104867       15.954939        7.178353
  H           13.952975       15.039437        6.186384
  H           13.305109       17.541578        7.836796
  H           13.486677       17.532100        6.083444
  H            9.440570       16.483018        3.798505
  H            8.356366       15.386443        4.682205
  H            9.877960       14.750321        4.035673
  C           11.757771        9.990793       29.160605
  C           13.004334        9.161972       29.367818
  O           13.676737        8.943801       28.125532
  C           13.242222        7.870641       27.412703
  O           12.359865        7.099963       27.734883
  O           13.973292        7.806529       26.272516
  C           13.624478        6.714949       25.420706
  H           12.003486       10.940424       28.663890
  H           11.273691       10.212141       30.121423
  H           11.041226        9.475844       28.523666
  H           13.707658        9.706403       30.020758
  H           12.777347        8.215768       29.879944
  H           13.792300        5.753987       25.930007
  H           14.268255        6.752870       24.539109
  H           12.586343        6.800369       25.093018
  C           28.597738       11.261973        6.168319
  C           28.565992       10.528322        4.847506
  O           28.180470        9.165116        5.037356
  C           29.196566        8.312211        5.335186
  O           30.371704        8.600696        5.445305
  O           28.667303        7.072841        5.484993
  C           29.629375        6.065621        5.799199
  H           27.625413       11.185774        6.675939
  H           28.832799       12.324300        6.017624
  H           29.340452       10.836068        6.840093
  H           27.809503       10.985533        4.187141
  H           29.526783       10.610236        4.319045
  H           30.372061        5.970819        4.992707
  H           29.104322        5.112670        5.895656
  H           30.119746        6.286408        6.749562
  C           37.646644       24.425893       38.156668
  C           38.013301       23.902316       36.787278
  O           37.736148       24.880713       35.782825
  C           36.465119       24.870891       35.300136
  O           35.571610       24.119264       35.636288
  O           36.367972       25.850610       34.367765
  C           35.076314       25.954260       33.768035
  H           38.168898       25.371583       38.361172
  H           37.916661       23.700146       38.935693
  H           36.580260       24.630216       38.230002
  H           39.097027       23.699351       36.745525
  H           37.512087       22.946942       36.574803
  H           34.814756       25.023502       33.242415
  H           35.105605       26.764717       33.036324
  H           34.322340       26.196194       34.519960
  C           22.931233       20.815533       32.163430
  C           24.152909       21.691079       32.320680
  O           24.815329       21.862039       31.065700
  C           25.714587       20.892711       30.748938
  O           25.999064       19.923920       31.424821
  O           26.246437       21.199451       29.539952
  C           27.218681       20.260710       29.079185
  H           22.253386       21.231080       31.403993
  H           22.386199       20.734033       33.113585
  H           23.201437       19.814296       31.833557
  H           23.848309       22.695510       32.660880
  H           24.832916       21.297792       33.090106
  H           28.073208       20.213271       29.770946
  H           27.583132       20.598894       28.106608
  H           26.769669       19.273185       28.954353
  C           15.190490       15.967765       27.674523
  C           16.143313       15.669170       28.808882
  O           17.360093       15.108610       28.310665
  C           17.349267       13.759640       28.141071
  O           16.421734       13.010563       28.375303
  O           18.564546       13.391671       27.665366
  C           18.698856       11.987847       27.441672
  H           15.665112       16.629025       26.935356
  H           14.280576       16.455856       28.049121
  H           14.903350       15.059097       27.149001
  H           16.411082       16.606807       29.325154
  H           15.676759       15.022489       29.566003
  H           18.571409       11.429436       28.381319
  H           19.706347       11.798873       27.064378
  H           17.981055       11.648248       26.692117
  C           18.049313       16.453663       18.233179
  C           18.936146       15.277395       18.570402
  O           18.989186       14.356814       17.478286
  C           17.994784       13.429908       17.453609
  O           17.093564       13.317123       18.260692
  O           18.187265       12.644010       16.365531
  C           17.209870       11.614204       16.213880
  H           18.391764       16.943506       17.310313
  H           18.056867       17.192168       19.046231
  H           17.021701       16.138712       18.062532
  H           19.967893       15.628090       18.743351
  H           18.616793       14.787154       19.501410
  H           17.227642       10.929954       17.075556
  H           17.455716       11.042059       15.316489
  H           16.214844       12.045337       16.085626
  C           17.795655        8.382129       24.505627
  C           17.387660        8.222078       25.951907
  O           18.060096        7.108948       26.545010
  C           17.447909        5.906532       26.377603
  O           16.404880        5.703933       25.788245
  O           18.207266        4.965522       26.991181
  C           17.678158        3.642559       26.898381
  H           18.887514        8.479904       24.420873
  H           17.328174        9.273572       24.065980
  H           17.508107        7.514665       23.914762
  H           17.686559        9.117527       26.523073
  H           16.295935        8.140657       26.054896
  H           16.691330        3.582609       27.381679
  H           18.358226        2.967217       27.422329
  H           17.615192        3.326709       25.854985
  C           22.511812       12.839257       27.260360
  C           23.917820       12.567823       27.743334
  O           23.938236       12.391283       29.161579
  C           24.052768       13.536194       29.885914
  O           24.142134       14.664102       29.443039
  O           24.054324       13.197852       31.198972
  C           24.173795       14.311528       32.084552
  H           21.832954       12.033762       27.575367
  H           22.484354       12.913156       26.164785
  H           22.121234       13.764899       27.678614
  H           24.287987       11.628257       27.298821
  H           24.612856       13.356512       27.420855
  H           25.123634       14.841735       31.918156
  H           24.167256       13.932991       33.109133
  H           23.327665       14.991007       31.963014
  C           15.958099       19.281796        3.269660
  C           16.000724       18.162444        2.255247
  O           14.781711       18.110340        1.510739
  C           13.786913       17.378424        2.079313
  O           13.845747       16.777483        3.133688
  O           12.710294       17.432308        1.256763
  C           11.581257       16.697773        1.730611
  H           15.746173       20.241638        2.777026
  H           16.916813       19.363261        3.799501
  H           15.170723       19.121323        4.003546
  H           16.810684       18.349730        1.529789
  H           16.229363       17.197664        2.730668
  H           11.823628       15.628520        1.825247
  H           10.776213       16.803582        0.999988
  H           11.235086       17.099578        2.685136
  C           28.624620        6.634618       14.570775
  C           27.408765        6.053433       13.886874
  O           26.243845        6.824619       14.188922
  C           25.600623        6.477043       15.335245
  O           25.919363        5.588569       16.100307
  O           24.530457        7.297811       15.475542
  C           23.753149        7.042176       16.645689
  H           28.757186        7.689852       14.291834
  H           29.530696        6.080791       14.290060
  H           28.522592        6.603270       15.653783
  H           27.543885        6.093555       12.792556
  H           27.272645        4.992602       14.142234
  H           23.338916        6.022902       16.623514
  H           22.921463        7.750075       16.662343
  H           24.352809        7.194095       17.545539
  C           19.329329       26.125900       32.457644
  C           19.190709       26.112412       30.952851
  O           17.851185       26.428678       30.567296
  C           16.996828       25.371954       30.522495
  O           17.268343       24.213791       30.769960
  O           15.780227       25.837882       30.146471
  C           14.775838       24.827299       30.053076
  H           19.011457       27.095952       32.866125
  H           20.371398       25.944707       32.753892
  H           18.702027       25.366223       32.919902
  H           19.841399       26.887516       30.513286
  H           19.521703       25.154051       30.527307
  H           15.047872       24.076099       29.296309
  H           13.842694       25.303389       29.743752
  H           14.615780       24.354365       31.024217
  C            2.014016       19.510420       19.647411
  C            2.985389       18.742965       18.780666
  O            2.556904       17.388766       18.620834
  C            2.960514       16.534590       19.598629
  O            3.639566       16.815020       20.566382
  O            2.473415       15.304460       19.301787
  C            2.825758       14.296950       20.250249
  H            0.998178       19.456405       19.230212
  H            2.307984       20.566257       19.720149
  H            1.966658       19.095327       20.652277
  H            3.015965       19.189775       17.772288
  H            4.009905       18.802255       19.175574
  H            3.918182       14.174363       20.301052
  H            2.389595       13.351703       19.919538
  H            2.419611       14.537876       21.234830
  C           20.116838       19.112497       10.077193
  C           19.305371       18.400579       11.134782
  O           19.987630       17.230195       11.590549
  C           19.766952       16.108129       10.855111
  O           19.055280       16.016671        9.874570
  O           20.481299       15.099537       11.412828
  C           20.340467       13.848133       10.739809
  H           21.119880       19.353879       10.457378
  H           19.623762       20.044952        9.770756
  H           20.253320       18.488543        9.196083
  H           19.179147       19.058788       12.011269
  H           18.292586       18.167834       10.775344
  H           19.293280       13.510488       10.759730
  H           20.949118       13.109206       11.265766
  H           20.701054       13.922529        9.711781
  C           28.289319       29.379176       14.717763
  C           26.949839       29.145784       15.377400
  O           26.280701       28.033206       14.779549
  C           25.538193       28.327291       13.679187
  O           25.394615       29.424811       13.178053
  O           24.977602       27.174582       13.236922
  C           24.159675       27.335116       12.077602
  H           28.904774       28.469078       14.760635
  H           28.831840       30.193681       15.216516
  H           28.173725       29.634618       13.666247
  H           27.098880       28.895094       16.441515
  H           26.328854       30.053038       15.358221
  H           23.315468       28.009421       12.286473
  H           23.757825       26.356086       11.807198
  H           24.751416       27.708088       11.239070
  C            1.807276       30.221560       17.657283
  C            3.151942       30.120148       16.975088
  O            3.341921       28.813657       16.427373
  C            3.857492       27.894930       17.286865
  O            4.166784       28.085609       18.446295
  O            3.971628       26.720395       16.619001
  C            4.508410       25.656155       17.405169
  H            0.999505       29.956162       16.960168
  H            1.633224       31.242165       18.024122
  H            1.737692       29.535611       18.499264
  H            3.194456       30.829846       16.131334
  H            3.969664       30.399810       17.654955
  H            5.526169       25.898540       17.746368
  H            4.560472       24.763386       16.777991
  H            3.858375       25.441904       18.256021
  C           12.004861       16.139083       22.339915
  C           11.098138       17.348068       22.337342
  O           11.550337       18.315139       21.386927
  C           12.488224       19.185034       21.847633
  O           12.957532       19.213169       22.968016
  O           12.808505       20.025404       20.832843
  C           13.789054       21.004221       21.178155
  H           12.077124       15.708330       21.330891
  H           11.624042       15.368736       23.024052
  H           13.015554       16.402779       22.645306
  H           10.081557       17.048851       22.030043
  H           11.001548       17.780174       23.343848
  H           13.424523       21.651673       21.989896
  H           13.972156       21.626363       20.299228
  H           14.727759       20.523716       21.461609
  C           27.821414       17.219346       36.096063
  C           26.698350       17.525250       37.059884
  O           26.402062       16.383554       37.867191
  C           25.518503       15.504206       37.324355
  O           24.970702       15.605816       36.244591
  O           25.349989       14.487955       38.206077
  C           24.436480       13.483099       37.764980
  H           28.711046       16.868302       36.638487
  H           28.092532       18.113358       35.518364
  H           27.542309       16.430404       35.400383
  H           27.008183       18.331008       37.747021
  H           25.806394       17.894645       36.533518
  H           23.432794       13.908140       37.613473
  H           24.371350       12.718451       38.542264
  H           24.797168       13.012329       36.848094
  C           18.153863        6.705698       16.807182
  C           17.811887        5.374899       17.436330
  O           18.989375        4.584660       17.615341
  C           19.351332        3.833555       16.541364
  O           18.772741        3.774270       15.474585
  O           20.476834        3.153195       16.871451
  C           20.972859        2.312569       15.829287
  H           18.906310        7.235433       17.408934
  H           17.259933        7.338806       16.726178
  H           18.576617        6.576587       15.812743
  H           17.380946        5.538183       18.438841
  H           17.046836        4.840248       16.854999
  H           20.232854        1.542423       15.564207
  H           21.872240        1.812405       16.195416
  H           21.241333        2.905819       14.952716
  C           18.407836       21.010214       33.077786
  C           19.242113       20.528011       34.241943
  O           19.799212       19.241396       33.963987
  C           18.999658       18.185590       34.271537
  O           17.885789       18.240633       34.753788
  O           19.668110       17.051062       33.948087
  C           18.942846       15.852298       34.223327
  H           19.003677       21.020841       32.153794
  H           18.030241       22.024785       33.263712
  H           17.558751       20.353119       32.900076
  H           20.089953       21.215951       34.401023
  H           18.664665       20.528480       35.177707
  H           18.724898       15.766730       35.298584
  H           19.565582       15.003845       33.931047
  H           18.020244       15.819439       33.640126
  O           15.696440       10.626735       30.208664
  C           15.362521       10.927279       29.077129
  O           14.141268       11.444271       28.744023
  C           14.223468       11.846029       27.384452
  C           15.350434       11.012781       26.866622
  F           14.905095        9.787875       26.482072
  O           16.183880       10.818215       27.986269
  H           14.452607       12.913687       27.359941
  H           13.282409       11.637765       26.875007
  H           15.890126       11.473924       26.030572
  O           37.365941        1.003776       14.875635
  C           36.366246        1.689913       14.765978
  O           35.471331        1.917344       15.774493
  C           34.576691        2.917801       15.310483
  C           34.700903        2.802066       13.826004
  F           33.873923        1.835230       13.348582
  O           36.021958        2.356604       13.619902
  H           34.926782        3.883704       15.681250
  H           33.566182        2.708587       15.662052
  H           34.497767        3.739089       13.293441
  O           39.597207       29.837664        3.616289
  C           38.459967       30.182547        3.880754
  O           37.394004       30.041116        3.036111
  C           36.232065       30.366761        3.784745
  C           36.781233       31.215795        4.884770
  F           36.890760       32.509645        4.484078
  O           38.089663       30.730211        5.080520
  H           35.797343       29.436579        4.157274
  H           35.521308       30.905162        3.157490
  H           36.188899       31.177710        5.807045
  O           15.993161       33.115724       34.064000
  C           15.220399       32.176761       34.122206
  O           14.530408       31.677108       33.052646
  C           13.910813       30.476346       33.489536
  C           13.848961       30.662522       34.970756
  F           12.740630       31.366640       35.320641
  O           14.964563       31.470755       35.267895
  H           14.552993       29.640331       33.203735
  H           12.922478       30.379922       33.039651
  H           13.864871       29.721105       35.533233
  O           18.934276       24.672883       22.254676
  C           18.051199       23.871481       22.499891
  O           18.164165       22.520164       22.324166
  C           17.012666       21.932880       22.912169
  C           16.033338       23.061326       22.906937
  F           15.390874       23.134403       21.711738
  O           16.831852       24.217072       23.019756
  H           17.273477       21.615643       23.924265
  H           16.676780       21.086337       22.312965
  H           15.287556       22.999941       23.708772
  O           23.800780       31.669202       34.106564
  C           24.317135       32.767572       34.010859
  O           25.011282       33.201725       32.915701
  C           25.267039       34.584369       33.114404
  C           25.166815       34.723670       34.598672
  F           26.350225       34.415347       35.191190
  O           24.241129       33.732056       34.980649
  H           24.492701       35.150617       32.592136
  H           26.257574       34.839798       32.737447
  H           24.854246       35.722570       34.926393
  O           28.543026        8.728601       16.227525
  C           27.634613        8.868056       17.025985
  O           26.834797        9.974624       17.100153
  C           25.785798        9.662030       18.004856
  C           26.376928        8.557531       18.819195
  F           27.116502        9.058422       19.843275
  O           27.269810        7.914128       17.938915
  H           24.923299        9.330983       17.422186
  H           25.537125       10.536625       18.606308
  H           25.631402        7.862969       19.224995
  O           28.420057       28.730242       19.036353
  C           28.747101       29.828232       18.624454
  O           29.254032       30.065423       17.376872
  C           29.309622       31.475543       17.218525
  C           29.335413       31.960751       18.631467
  F           30.604873       31.960967       19.116310
  O           28.617575       30.983306       19.349387
  H           28.408975       31.792671       16.688181
  H           30.206348       31.755036       16.665112
  H           28.904858       32.961162       18.760699
  O            6.763737       25.656304       11.274352
  C            7.848849       25.553277       10.732026
  O            8.776297       26.555718       10.663812
  C            9.965138       25.979231       10.143313
  C            9.454238       24.772450        9.425567
  F            9.054815       25.094981        8.167380
  O            8.300374       24.401144       10.144476
  H           10.611401       25.718158       10.984255
  H           10.461030       26.683299        9.474822
  H           10.181765       23.953657        9.369155
  O           35.870522        7.989565       33.162769
  C           35.599114        9.002251       33.781642
  O           35.934709       10.265650       33.380520
  C           35.266592       11.163919       34.254209
  C           35.018497       10.319324       35.461524
  F           36.102580       10.322135       36.280887
  O           34.887296        9.011936       34.951993
  H           34.338834       11.478961       33.771494
  H           35.904645       12.021389       34.468994
  H           34.136231       10.623979       36.037450
  O            7.041620       28.970707       20.177727
  C            7.171925       29.754810       19.255554
  O            8.180131       30.673527       19.159741
  C            8.095550       31.240619       17.860567
  C            6.671957       30.984591       17.485958
  F            5.864027       31.963881       17.970560
  O            6.339501       29.797257       18.168462
  H            8.796202       30.709252       17.212697
  H            8.331585       32.304203       17.900274
  H            6.511438       30.893216       16.404854
  O           22.453975        5.452239        6.153513
  C           21.691988        4.567858        5.807903
  O           20.418919        4.778511        5.355553
  C           19.946155        3.531734        4.867046
  C           20.811276        2.550391        5.588871
  F           20.298488        2.268980        6.815433
  O           22.023678        3.238836        5.794358
  H           20.105970        3.508515        3.786805
  H           18.889521        3.411925        5.107192
  H           20.961915        1.611634        5.042114
  O            1.140705        9.789048       29.645978
  C            1.483534       10.233650       28.565702
  O            1.799046        9.465438       27.479423
  C            1.940935       10.351173       26.378541
  C            2.233980       11.655402       27.046080
  F            3.561096       11.770123       27.314787
  O            1.565999       11.571726       28.284183
  H            0.994592       10.368424       25.833437
  H            2.755643       10.020052       25.734251
  H            1.911509       12.528489       26.465880
  O            2.811164       21.050219       29.940900
  C            2.798771       22.266001       30.003520
  O            3.285937       22.989994       31.056232
  C            3.274845       24.352573       30.656413
  C            2.248881       24.364500       29.570248
  F            1.000795       24.502438       30.089724
  O            2.322925       23.075251       29.005930
  H            4.271319       24.605535       30.287565
  H            2.998305       24.987515       31.498360
  H            2.411158       25.148639       28.820787
  O           22.676421       31.964156       31.508906
  C           22.463693       30.804822       31.813687
  O           21.769579       30.413409       32.924858
  C           21.566705       29.012698       32.808878
  C           22.658614       28.602093       31.875263
  F           23.814675       28.382589       32.554925
  O           22.865060       29.733314       31.060511
  H           20.574329       28.848202       32.383284
  H           21.654400       28.539479       33.787077
  H           22.418855       27.710392       31.283415
  O            4.962851       22.212925        4.148790
  C            5.580786       21.426255        3.454884
  O            6.779721       21.700189        2.857207
  C            7.259203       20.475939        2.320637
  C            6.008278       19.671453        2.177495
  F            5.389885       19.950158        0.999992
  O            5.170179       20.142974        3.207717
  H            7.952667       20.038326        3.042165
  H            7.752384       20.653802        1.364793
  H            6.171350       18.589070        2.246447
  O           39.290671       16.271774        2.168146
  C           39.111384       17.027763        3.105449
  O           38.332413       16.739775        4.191712
  C           38.548403       17.776989        5.137299
  C           39.039385       18.899612        4.282224
  F           37.996737       19.592694        3.753904
  O           39.697647       18.261226        3.212058
  H           39.304946       17.435884        5.847432
  H           37.615805       18.018455        5.647648
  H           39.700000       19.597986        4.810203
  O            5.239421       16.758436       24.884526
  C            4.674218       17.662610       24.296977
  O            4.438105       17.679622       22.950254
  C            3.587252       18.788109       22.697459
  C            3.840435       19.668358       23.877951
  F            4.930616       20.451950       23.667978
  O            4.166740       18.773779       24.916871
  H            2.557785       18.424574       22.665223
  H            3.862052       19.263874       21.755847
  H            2.988418       20.306933       24.140987
  O           27.361601       18.713388       20.278670
  C           26.960920       17.563925       20.298448
  O           27.677272       16.488656       19.850859
  C           26.955582       15.327287       20.234246
  C           25.566600       15.849939       20.407640
  F           24.909218       15.870977       19.218520
  O           25.745026       17.189780       20.806501
  H           27.379376       14.958961       21.171121
  H           27.021832       14.570319       19.452511
  H           24.971047       15.283227       21.133625
  O           28.008395       20.292184       35.811387
  C           28.511872       20.109499       36.904702
  O           29.077778       18.931580       37.307139
  C           29.724146       19.189447       38.545006
  C           29.004419       20.401023       39.041572
  F           27.870331       20.049059       39.702304
  O           28.608821       21.076772       37.869836
  H           30.778638       19.388586       38.341558
  H           29.610746       18.334432       39.211781
  H           29.613791       21.037587       39.694528
  O           14.883671       12.303325       11.604647
  C           14.620248       11.620838       12.577797
  O           14.174513       12.117285       13.771347
  C           13.791737       11.001430       14.561884
  C           14.572468        9.884973       13.948304
  F           15.825562        9.830861       14.471207
  O           14.703736       10.253632       12.594435
  H           12.713971       10.862237       14.452132
  H           14.058192       11.172657       15.605044
  H           14.097340        8.902820       14.060243
  O           19.230142        6.979536        8.129031
  C           20.327819        7.484767        8.277510
  O           21.344097        6.924892        9.000988
  C           22.501165        7.711775        8.758896
  C           21.920903        9.018884        8.326160
  F           21.616923        9.789731        9.403189
  O           20.703084        8.672428        7.707302
  H           23.077496        7.231483        7.965068
  H           23.091964        7.799211        9.670933
  H           22.573611        9.588529        7.653571
  O           10.509668       20.326922       21.380963
  C            9.924718       19.919465       22.367884
  O            8.728566       19.257618       22.338232
  C            8.493041       18.777918       23.653913
  C            9.335481       19.687791       24.487536
  F            8.662876       20.831822       24.779762
  O           10.407691       20.041175       23.643981
  H            8.831505       17.740549       23.701942
  H            7.432669       18.853312       23.895630
  H            9.683867       19.231148       25.421883
  O           18.629595       11.969875       21.764724
  C           18.106732       13.068585       21.724086
  O           17.300549       13.503015       20.708685
  C           16.735459       14.734883       21.132682
  C           17.705942       15.197961       22.170092
  F           18.740919       15.865578       21.595887
  O           18.230505       14.008065       22.713306
  H           15.748298       14.528268       21.551996
  H           16.664660       15.423750       20.290690
  H           17.255123       15.835070       22.940647
  O           32.362708       15.269976       36.099706
  C           32.981226       16.231442       35.681117
  O           32.452978       17.483687       35.530994
  C           33.534617       18.350224       35.221526
  C           34.557159       17.410216       34.670805
  F           34.346374       17.193378       33.345983
  O           34.306136       16.192997       35.335234
  H           33.864704       18.824428       36.148441
  H           33.219217       19.097103       34.492695
  H           35.589896       17.749721       34.816030
  O           16.987209       28.915092       18.692721
  C           16.102682       28.988666       19.526027
  O           16.306638       29.290160       20.844057
  C           15.024341       29.478595       21.424408
  C           14.132398       28.720820       20.495583
  F           14.095704       27.404657       20.831690
  O           14.773936       28.811396       19.244054
  H           14.807101       30.549018       21.425836
  H           15.009310       29.076686       22.437691
  H           13.106679       29.107328       20.458006
  O           32.165099       33.545861       19.893207
  C           32.965986       32.990420       19.163641
  O           32.659206       31.951458       18.329290
  C           33.799963       31.731164       17.512746
  C           34.902853       32.324212       18.327870
  F           35.370438       31.423314       19.231390
  O           34.281282       33.357926       19.056694
  H           33.649759       32.262523       16.570357
  H           33.936428       30.663368       17.340438
  H           35.742605       32.695076       17.727723
  O           10.206969       12.588422       28.626298
  C            9.069456       12.156548       28.668094
  O            8.564537       11.409121       29.695766
  C            7.169031       11.284164       29.464357
  C            7.060759       11.521430       27.993139
  F            7.282303       10.371711       27.303454
  O            8.128994       12.392837       27.700521
  H            6.658735       12.054546       30.046688
  H            6.829418       10.289099       29.752469
  H            6.095186       11.940734       27.685319
  O           24.882353       26.416356       15.299836
  C           23.766959       26.140939       14.897044
  O           22.696190       26.989809       14.947781
  C           21.653434       26.378981       14.202026
  C           22.036611       24.935057       14.229555
  F           21.581348       24.338657       15.362535
  O           23.443819       24.948689       14.304913
  H           21.672126       26.793161       13.191529
  H           20.692059       26.564600       14.681404
  H           21.679292       24.368733       13.360935
  O           15.044742       20.624946       14.515057
  C           14.348995       19.626305       14.485910
  O           12.996737       19.621121       14.688573
  C           12.539720       18.314903       14.369936
  C           13.775478       17.490177       14.528766
  F           13.942623       17.119887       15.825512
  O           14.827320       18.372530       14.210675
  H           12.177951       18.324553       13.339388
  H           11.748204       18.017041       15.057891
  H           13.789512       16.593185       13.897808
  O           15.061818       35.549814        8.183789
  C           14.145614       34.889908        8.639083
  O           14.000907       33.542159        8.459268
  C           12.940580       33.127135        9.307832
  C           12.176667       34.394053        9.517250
  F           11.293082       34.595310        8.504643
  O           13.150772       35.408327        9.425234
  H           13.376886       32.748630       10.234855
  H           12.345691       32.358030        8.814795
  H           11.638111       34.430003       10.472009
  O           18.601814       34.695046       38.290920
  C           18.319071       33.511803       38.244091
  O           19.171418       32.530414       37.819732
  C           18.544689       31.289671       38.110197
  C           17.101008       31.665875       38.192394
  F           16.533966       31.667952       36.957461
  O           17.113244       33.000372       38.645239
  H           18.933619       30.928985       39.064994
  H           18.744375       30.573660       37.312730
  H           16.514132       31.015649       38.852457
  O            4.893139        6.831119       35.840603
  C            4.590890        7.574716       34.925229
  O            5.484992        8.323055       34.210898
  C            4.770792        8.881747       33.118020
  C            3.357454        8.847642       33.601562
  F            3.079267        9.946772       34.350645
  O            3.310644        7.734783       34.464958
  H            4.926389        8.239949       32.248028
  H            5.120082        9.895616       32.921638
  H            2.618511        8.770382       32.794782
  O           25.740860       33.247175       17.284356
  C           24.678352       32.653594       17.314999
  O           24.549286       31.295817       17.217616
  C           23.191565       30.991900       17.501920
  C           22.500232       32.282791       17.205003
  F           22.206346       32.377140       15.881625
  O           23.466661       33.269154       17.486436
  H           23.119651       30.716661       18.556468
  H           22.848295       30.178260       16.862659
  H           21.581734       32.433217       17.785205
  O            9.400818       18.472324       35.706714
  C           10.609178       18.331642       35.659025
  O           11.479886       19.282419       35.203404
  C           12.787831       18.816986       35.502154
  C           12.587272       17.341705       35.627934
  F           12.647986       16.742956       34.409569
  O           11.262737       17.207627       36.090244
  H           13.103308       19.273678       36.442849
  H           13.471584       19.077560       34.694017
  H           13.305680       16.856019       36.299425
  O           39.688751       16.712223       26.430342
  C           38.861254       17.437314       25.909102
  O           37.681073       17.001759       25.373225
  C           36.921121       18.159824       25.060242
  C           37.971704       19.215315       24.938940
  F           38.504200       19.221773       23.688737
  O           38.988925       18.798337       25.820695
  H           36.236639       18.350290       25.889825
  H           36.373165       18.007899       24.130100
  H           37.611721       20.223430       25.177718
  O           25.312133       21.820242       18.959049
  C           24.514510       22.348962       18.206417
  O           24.746631       23.514473       17.530101
  C           23.672179       23.678816       16.616239
  C           22.593039       22.847450       17.230069
  F           21.911591       23.559315       18.165739
  O           23.284315       21.824510       17.909651
  H           23.990934       23.292571       15.645564
  H           23.398427       24.731711       16.545736
  H           21.880101       22.444189       16.500685
  O            7.993882       31.443816       29.492154
  C            9.162759       31.783221       29.465130
  O           10.188322       31.064879       30.014589
  C           11.394473       31.685026       29.593618
  C           10.949019       33.072698       29.264321
  F           10.933722       33.849663       30.379082
  O            9.611646       32.920206       28.846854
  H           11.762593       31.149077       28.715981
  H           12.128048       31.662712       30.399763
  H           11.563132       33.561419       28.498216
  O           16.495188       14.867939        1.382212
  C           16.759880       13.941384        2.126277
  O           16.067286       13.645359        3.267497
  C           16.552586       12.392746        3.727979
  C           17.904218       12.315278        3.095850
  F           18.828280       12.957905        3.857258
  O           17.772151       13.046961        1.898646
  H           15.879530       11.613755        3.363058
  H           16.600558       12.387316        4.817093
  H           18.245560       11.289275        2.912264
  O           28.050869        3.463444       26.865174
  C           28.154139        4.671030       26.980383
  O           27.198493        5.568354       26.591473
  C           27.606011        6.838157       27.079459
  C           29.079278        6.661630       27.255020
  F           29.733753        6.895684       26.087338
  O           29.234113        5.292242       27.549813
  H           27.094447        7.016751       28.027830
  H           27.362496        7.614006       26.353334
  H           29.508307        7.299218       28.037527
  O           39.533546       25.803813       20.393510
  C           39.174218       24.644748       20.491744
  O           39.700089       23.745723       21.377698
  C           38.881279       22.586915       21.320122
  C           38.243744       22.705677       19.974037
  F           39.051879       22.187530       19.012247
  O           38.165560       24.094209       19.746079
  H           38.151603       22.647062       22.130649
  H           39.494364       21.690318       21.413619
  H           37.260100       22.224866       19.909484
  O           23.773011       20.417378       27.909434
  C           23.001701       21.228593       28.388193
  O           23.325948       22.108403       29.383431
  C           22.232110       23.005124       29.509963
  C           21.100298       22.221604       28.928931
  F           20.547500       21.408368       29.866833
  O           21.708523       21.390995       27.966511
  H           22.458613       23.900257       28.926495
  H           22.071689       23.254227       30.559112
  H           20.312559       22.846229       28.490513
  O           20.979527        9.354617       36.730218
  C           20.863204       10.552206       36.544611
  O           20.094586       11.110083       35.560893
  C           20.062715       12.507937       35.809062
  C           21.292685       12.720616       36.630306
  F           22.380863       12.882809       35.832709
  O           21.464068       11.505578       37.323421
  H           19.149716       12.732610       36.364900
  H           20.090188       13.056091       34.867111
  H           21.222260       13.574985       37.314408
  O           38.669608       29.743729       10.002499
  C           38.541431       29.451836       11.177475
  O           38.693682       28.189543       11.680601
  C           38.668027       28.306645       13.095603
  C           37.942520       29.596406       13.302142
  F           36.598133       29.398738       13.289956
  O           38.259413       30.361667       12.161942
  H           39.700011       28.350587       13.450676
  H           38.141712       27.457510       13.532021
  H           38.218073       30.112136       14.230039
  O            3.901426        8.388892       12.108963
  C            3.486219        7.249767       11.998521
  O            4.267189        6.169288       11.694627
  C            3.455170        5.016523       11.863029
  C            2.073644        5.569102       11.726861
  F            1.710769        5.638799       10.419167
  O            2.178989        6.892763       12.199011
  H            3.643109        4.612470       12.860235
  H            3.687282        4.279521       11.093970
  H            1.315600        4.998158       12.276671
  O           29.959576       19.278239       14.274857
  C           29.381141       19.584889       13.248417
  O           29.966841       20.231838       12.195747
  C           29.026669       20.217360       11.131573
  C           27.728374       20.030337       11.847083
  F           27.236847       21.224323       12.270636
  O           28.067197       19.289917       12.997334
  H           29.265561       19.373999       10.479903
  H           29.068456       21.158141       10.582314
  H           26.963830       19.523880       11.245523
  O            9.429875       21.193846       17.064852
  C            8.376393       20.596374       16.940744
  O            7.275935       21.096112       16.301248
  C            6.344646       20.029411       16.194247
  C            6.775506       19.110253       17.290608
  F            6.220892       19.481247       18.474401
  O            8.164459       19.322879       17.398777
  H            6.458903       19.577738       15.206353
  H            5.330247       20.402346       16.337130
  H            6.536889       18.056798       17.100359
  O           33.251505       36.722660       13.385252
  C           33.924010       36.949883       12.396158
  O           33.837816       38.092147       11.649497
  C           34.914804       38.059207       10.724504
  C           35.232204       36.601232       10.646623
  F           34.429950       35.982566        9.740951
  O           34.886056       36.100230       11.917559
  H           35.739093       38.640632       11.143424
  H           34.597175       38.468736        9.765391
  H           36.279280       36.392005       10.396114
  O           14.611868       29.832691        5.065507
  C           15.391982       30.638629        4.592130
  O           15.043508       31.625622        3.712294
  C           16.180013       32.464488        3.566485
  C           17.302391       31.564715        3.970437
  F           17.717590       30.812208        2.917848
  O           16.724371       30.684456        4.906993
  H           16.064421       33.312550        4.245035
  H           16.266620       32.801271        2.533250
  H           18.164623       32.098021        4.388816
  O           29.865748       21.913348       28.215443
  C           31.031737       21.623086       28.411449
  O           31.823087       22.205353       29.362464
  C           33.028237       21.455579       29.407756
  C           33.057406       20.805174       28.062906
  F           33.604928       21.637266       27.138545
  O           31.699116       20.644557       27.723274
  H           32.944252       20.727865       30.217927
  H           33.877085       22.120638       29.567924
  H           33.598116       19.851078       28.047603
  O           18.208655       18.868973        8.478645
  C           17.343928       19.519392        7.920612
  O           16.182568       18.995131        7.424533
  C           15.365867       20.093586        7.046381
  C           16.363745       21.187973        6.848753
  F           16.887187       21.140379        5.595620
  O           17.405519       20.876588        7.745328
  H           14.678431       20.303573        7.868778
  H           14.819811       19.857084        6.132933
  H           15.957327       22.190964        7.026889
  O           11.241523        9.842341        9.078465
  C           11.229521       10.659848        9.980539
  O           12.292102       10.920333       10.800765
  C           11.945941       12.063242       11.569226
  C           10.452843       12.052204       11.514135
  F            9.942392       11.243381       12.479456
  O           10.153715       11.455943       10.272726
  H           12.371865       12.942069       11.080092
  H           12.326588       11.960280       12.585596
  H           10.002039       13.047562       11.608669
  O           37.098550       17.779720       16.772196
  C           35.904917       17.886806       16.986606
  O           35.369211       18.531749       18.066776
  C           33.969233       18.612516       17.842860
  C           33.729780       17.499185       16.875567
  F           33.561147       16.320952       17.531257
  O           34.934332       17.401500       16.150577
  H           33.751307       19.591304       17.409866
  H           33.431440       18.472999       18.780844
  H           32.868813       17.666471       16.217045
  O           15.742331       17.772548       34.908952
  C           15.641920       18.979136       35.036475
  O           15.479157       19.618129       36.234347
  C           15.612242       21.008583       35.978369
  C           15.297228       21.102599       34.520828
  F           13.955550       21.190524       34.323930
  O           15.713418       19.863888       33.993114
  H           16.642538       21.296544       36.198751
  H           14.910270       21.571420       36.593958
  H           15.786697       21.945948       34.018749
  O            4.705253        7.800935       39.651855
  C            3.719739        8.467081       39.392606
  O            2.603003        7.983540       38.769075
  C            1.619427        9.005391       38.839782
  C            2.443281       10.237211       39.030532
  F            2.866904       10.721998       37.833817
  O            3.585378        9.789388       39.724196
  H            0.977811        8.799146       39.699312
  H            1.038841        9.030608       37.917403
  H            1.922053       11.035025       39.573406
  O           32.486492        8.486067        6.040125
  C           33.030084        9.574577        6.083173
  O           34.367617        9.778120        5.884994
  C           34.561929       11.182968        5.812567
  C           33.365728       11.714361        6.533139
  F           33.588033       11.748504        7.873294
  O           32.363318       10.750736        6.303570
  H           34.571703       11.469740        4.758686
  H           35.498006       11.457005        6.299562
  H           33.057883       12.712216        6.197853
  O            9.694578       35.414114       10.778914
  C            9.416284       36.469148       10.238863
  O            8.547093       37.392636       10.750113
  C            8.656279       38.551976        9.937336
  C            9.201851       38.002994        8.659263
  F            8.198792       37.538326        7.868974
  O            9.966927       36.888150        9.056607
  H            9.351233       39.241283       10.421996
  H            7.676625       39.012705        9.808858
  H            9.798227       38.725816        8.089381
  O           30.914904       32.926511       26.515514
  C           31.980617       32.421744       26.212749
  O           33.191151       33.047542       26.325376
  C           34.185162       32.065488       26.072172
  C           33.437404       31.042379       25.280588
  F           33.421522       31.372178       23.962415
  O           32.111561       31.139692       25.748319
  H           34.528817       31.675731       27.032896
  H           35.010975       32.504478       25.511975
  H           33.835304       30.026043       25.388460
  O           14.409106       14.894136       31.877582
  C           13.531235       15.485769       31.276323
  O           12.510800       16.170274       31.876210
  C           11.833380       16.879085       30.848936
  C           12.194327       16.101823       29.624974
  F           11.352200       15.048299       29.459121
  O           13.468926       15.572784       29.910656
  H           12.227094       17.897591       30.823742
  H           10.760151       16.880921       31.040441
  H           12.197506       16.702836       28.707547
  O           32.243417       24.846129       16.252516
  C           32.128949       24.328090       17.348295
  O           31.626100       24.959310       18.452109
  C           31.468997       23.966863       19.455587
  C           32.426023       22.906540       19.017050
  F           33.679001       23.172789       19.470656
  O           32.459367       23.025337       17.613171
  H           30.432264       23.623799       19.433417
  H           31.722144       24.379014       20.432597
  H           32.139411       21.896785       19.335088
  O            4.138692       18.150378       27.739599
  C            4.409726       18.201389       28.925407
  O            5.190694       17.288883       29.578952
  C            5.431049       17.810774       30.877590
  C            4.291914       18.759772       31.062725
  F            3.192881       18.107055       31.523904
  O            3.993188       19.205079       29.759435
  H            6.396857       18.320716       30.864368
  H            5.426052       17.004863       31.611743
  H            4.519784       19.593873       31.737448
  O           24.030471       39.629846       28.942742
  C           24.494626       39.226942       29.993660
  O           25.554815       38.368907       30.091006
  C           25.911017       38.311969       31.464497
  C           24.650700       38.737005       32.145265
  F           23.815181       37.678652       32.313779
  O           24.034468       39.609444       31.225913
  H           26.729522       39.015604       31.631670
  H           26.208220       37.297875       31.732424
  H           24.816512       39.217852       33.116961
  O            5.609209       16.927370       15.456491
  C            4.430522       16.652555       15.588304
  O            3.776179       16.613774       16.788317
  C            2.394640       16.462004       16.496915
  C            2.414725       15.867006       15.126486
  F            2.553740       14.516774       15.190902
  O            3.590876       16.377451       14.541494
  H            1.934498       17.452485       16.511599
  H            1.927397       15.804478       17.230292
  H            1.525256       16.105240       14.530677
  O            9.715386        4.812147       39.427588
  C            9.639255        3.663490       39.031365
  O           10.716474        2.854844       38.796013
  C           10.205501        1.552791       38.550728
  C            8.802010        1.830036       38.119627
  F            8.753212        2.104276       36.789585
  O            8.455298        3.014426       38.800151
  H           10.247925        0.990436       39.486119
  H           10.791089        1.061091       37.773670
  H            8.104713        1.012754       38.340369
  O            7.218420       39.668661        1.950470
  C            7.416044       38.856804        2.835927
  O            6.779016       37.650880        2.934130
  C            7.430518       36.926308        3.967155
  C            8.067285       38.011081        4.773564
  F            7.187836       38.517166        5.677470
  O            8.333453       39.031035        3.838176
  H            8.168151       36.266578        3.504929
  H            6.700954       36.353923        4.540402
  H            8.975061       37.692347        5.300112
  O           39.614540       24.529383        1.715841
  C           38.405590       24.668740        1.750740
  O           37.769573       25.772967        2.246590
  C           36.394565       25.635171        1.919535
  C           36.252713       24.160554        1.724901
  F           36.036792       23.537648        2.913163
  O           37.518129       23.746020        1.263399
  H           36.207379       26.194113        1.000000
  H           35.776305       26.009539        2.735686
  H           35.452627       23.884093        1.027527
  O           15.219408       12.441480        6.628729
  C           16.063599       12.104469        7.438645
  O           15.798666       11.778530        8.739903
  C           16.999922       11.250354        9.282685
  C           18.044480       11.827808        8.383828
  F           18.399819       13.072425        8.797666
  O           17.394513       11.973647        7.141904
  H           16.951900       10.161234        9.215513
  H           17.116196       11.572067       10.317809
  H           18.946131       11.208618        8.303029
  O           30.863104       29.512996        9.311911
  C           30.900846       29.109273       10.459859
  O           30.230608       29.685119       11.503354
  C           30.366913       28.807978       12.611797
  C           31.594331       28.030809       12.262577
  F           32.712494       28.699456       12.648872
  O           31.597231       27.997316       10.853688
  H           29.476222       28.177354       12.656327
  H           30.484200       29.381973       13.531184
  H           31.614715       27.023265       12.695404
  O           27.104068       21.767216       24.188248
  C           26.974236       22.901784       23.766231
  O           27.167505       23.267742       22.462995
  C           26.721154       24.610582       22.344028
  C           26.806595       25.107561       23.750517
  F           28.062329       25.545322       24.029973
  O           26.581653       23.961930       24.539840
  H           25.694282       24.594584       21.972171
  H           27.372363       25.162868       21.666231
  H           26.091804       25.907620       23.978290
  O           25.937064       20.609284       34.863918
  C           24.761852       20.619611       35.181676
  O           23.863061       19.644736       34.847769
  C           22.672922       19.919218       35.572219
  C           22.799577       21.378962       35.864803
  F           22.340592       22.119594       34.822019
  O           24.189041       21.598732       35.949601
  H           22.681633       19.312577       36.480465
  H           21.800614       19.690785       34.959524
  H           22.279911       21.690844       36.778902
  O            3.700921        5.636373       20.799568
  C            4.181928        4.533173       20.983367
  O            3.557748        3.357033       20.672249
  C            4.518466        2.325459       20.843935
  C            5.497484        2.946348       21.786549
  F            5.091636        2.788329       23.073762
  O            5.434124        4.324336       21.498045
  H            4.961749        2.109706       19.869281
  H            4.043539        1.437255       21.261114
  H            6.516389        2.553690       21.683825
  O           35.290369        7.007807        1.058149
  C           35.076623        8.167218        1.361920
  O           33.958939        8.866841        0.999967
  C           33.993950       10.093342        1.714857
  C           35.445847       10.241978        2.034860
  F           36.109072       10.821432        0.999985
  O           35.917409        8.918109        2.140215
  H           33.381639        9.980037        2.612207
  H           33.620046       10.902950        1.087775
  H           35.638027       10.818195        2.948063
  O            1.000033       12.509626       22.464200
  C            1.661837       11.882699       21.657244
  O            1.136859       11.045748       20.711933
  C            2.205061       10.678370       19.851365
  C            3.407193       10.909850       20.707984
  F            3.657262        9.825646       21.488091
  O            3.026547       11.959990       21.567293
  H            2.182508       11.339379       18.982136
  H            2.101773        9.635604       19.550583
  H            4.312030       11.155113       20.138760
  O           15.358749        7.724845       12.691920
  C           16.235858        6.880529       12.688877
  O           16.117267        5.641842       13.255702
  C           17.261343        4.899209       12.860499
  C           18.246460        5.972112       12.527446
  F           18.898140        6.389604       13.644412
  O           17.453073        7.048917       12.083456
  H           16.991407        4.299660       11.988332
  H           17.597317        4.264482       13.680708
  H           18.985949        5.671872       11.775175
  O           28.916778       32.497818        4.423769
  C           27.892009       31.845689        4.506082
  O           27.726508       30.597013        3.973993
  C           26.485934       30.105709        4.459994
  C           25.756041       31.360096        4.815340
  F           25.129426       31.876473        3.725703
  O           26.773648       32.265755        5.176391
  H           26.687403       29.482165        5.333837
  H           25.979016       29.534273        3.682180
  H           25.021678       31.228724        5.619301
  O           21.933301       25.469955        1.000500
  C           20.851329       25.920767        1.329595
  O           19.648565       25.360046        0.999972
  C           18.655457       26.057917        1.737069
  C           19.326077       27.359461        2.034980
  F           19.173251       28.226678        1.000002
  O           20.696226       27.037672        2.107391
  H           18.440990       25.485829        2.642452
  H           17.757078       26.180537        1.131775
  H           18.969271       27.837331        2.955431
  O           21.952623       16.782671       39.430145
  C           21.213595       17.726840       39.218998
  O           19.957595       17.620891       38.688963
  C           19.358279       18.903861       38.795771
  C           20.542966       19.809327       38.891423
  F           21.007709       20.124835       37.654060
  O           21.532008       19.025129       39.518264
  H           18.750787       18.919516       39.703355
  H           18.748367       19.106611       37.915202
  H           20.344801       20.735697       39.444116
  O           31.270536       38.287079       37.859120
  C           30.849776       37.188577       37.545345
  O           31.618880       36.060784       37.466229
  C           30.729023       34.970559       37.276060
  C           29.518563       35.634538       36.704728
  F           29.638774       35.776632       35.358638
  O           29.535029       36.929121       37.261401
  H           30.532490       34.519584       38.251250
  H           31.168061       34.243895       36.592170
  H           28.582580       35.106890       36.924780
  O           18.825530       15.747694       14.301626
  C           19.792430       16.450218       14.069752
  O           19.721234       17.766749       13.707291
  C           21.048492       18.271065       13.732819
  C           21.870110       17.032280       13.581645
  F           22.014004       16.708287       12.269805
  O           21.088898       16.020644       14.175278
  H           21.207340       18.758143       14.697456
  H           21.197942       18.973369       12.912493
  H           22.863216       17.104564       14.041444
  O           11.543139       39.477811       27.770981
  C           11.965325       38.337052       27.719712
  O           11.849681       37.519125       26.630068
  C           12.639407       36.369108       26.895387
  C           12.722080       36.368420       28.387254
  F           11.637648       35.753681       28.928274
  O           12.646425       37.730310       28.741703
  H           13.615429       36.512867       26.426651
  H           12.146927       35.478491       26.504536
  H           13.631179       35.894549       28.776978
  O           20.516399       39.645548       33.080803
  C           20.773118       39.142456       34.159317
  O           21.794127       39.544158       34.975330
  C           21.628945       38.856752       36.206909
  C           20.811771       37.670431       35.810211
  F           21.608747       36.669058       35.353396
  O           20.046972       38.123285       34.716545
  H           21.094666       39.516506       36.894129
  H           22.601281       38.576634       36.612614
  H           20.179742       37.281945       36.617996
  O            2.871856       34.153829       24.339759
  C            4.045382       33.830177       24.356711
  O            5.078486       34.652875       24.002361
  C            6.277989       33.979033       24.354115
  C            5.848148       32.548563       24.392736
  F            5.898093       31.998175       23.151293
  O            4.490871       32.601914       24.768305
  H            6.595933       34.342461       25.333825
  H            7.045454       34.163779       23.602206
  H            6.438437       31.930526       25.080115
  O           33.611980        6.495965       20.574576
  C           34.495650        6.103127       21.314174
  O           35.189129        4.937931       21.137808
  C           36.253449        4.948306       22.077869
  C           35.758722        5.899153       23.118847
  F           34.965915        5.258109       24.017245
  O           34.937848        6.798042       22.408731
  H           37.148579        5.317042       21.572126
  H           36.414330        3.944788       22.472292
  H           36.561103        6.417115       23.658106
  O           26.090312       32.468393       36.181993
  C           25.913829       31.310559       35.849618
  O           24.742078       30.627447       36.022990
  C           24.878053       29.397380       35.326536
  C           26.360703       29.228078       35.251809
  F           26.835313       28.644554       36.383554
  O           26.861445       30.545093       35.223051
  H           24.424434       29.514746       34.339898
  H           24.394312       28.595632       35.884832
  H           26.693489       28.645255       34.384358
  O           37.703115       32.599229       15.408092
  C           37.241368       33.724445       15.354440
  O           37.986511       34.868939       15.422223
  C           37.112096       35.945730       15.118051
  C           35.768780       35.373329       15.434843
  F           35.486879       35.512381       16.756885
  O           35.909134       33.993714       15.183719
  H           37.221844       36.182010       14.057331
  H           37.353544       36.810260       15.736753
  H           34.953518       35.814585       14.848719
  F           22.842526       10.578889       12.986084
  P           23.360024       10.330473       11.460507
  F           22.176121       11.301076       10.900862
  F           24.353739       11.616210       11.588227
  F           23.877522       10.082058        9.934929
  F           24.543928        9.359870       12.020151
  F           22.366310        9.044736       11.332786
  F           12.385914       37.753039       34.620055
  P           12.840207       37.910344       33.062566
  F           14.328228       38.370562       33.543078
  F           13.326325       36.354596       33.047228
  F           13.294500       38.067650       31.505076
  F           11.352186       37.450127       32.582054
  F           12.354089       39.466093       33.077904
  F           14.548388       34.840330        2.019915
  P           13.618152       35.812711        2.939718
  F           13.265468       34.554103        3.913587
  F           14.909344       36.169477        3.868396
  F           12.687916       36.785092        3.859520
  F           13.970836       37.071318        1.965849
  F           12.326960       35.455945        2.011040
  F           23.068354       12.144592       19.766852
  P           22.664244       12.034109       18.191610
  F           21.088416       11.957519       18.601242
  F           22.562462       13.658555       18.103786
  F           22.260134       11.923625       16.616368
  F           24.240073       12.110698       17.781978
  F           22.766026       10.409662       18.279434
  F           25.742306       18.747128       16.379804
  P           25.001322       18.648495       17.828291
  F           25.993969       19.800818       18.414553
  F           23.941843       19.797113       17.364521
  F           24.260338       18.549862       19.276778
  F           24.008675       17.496172       17.242029
  F           26.060801       17.499877       18.292061
  F            7.478692       11.835397       23.315035
  P            7.346555       13.333118       23.944535
  F            6.121809       12.826317       24.893245
  F            8.413999       12.937033       25.110974
  F            7.214418       14.830840       24.574036
  F            8.571301       13.839919       22.995826
  F            6.279111       13.729203       22.778097
  F           30.555541        7.311649        3.258271
  P           32.159593        7.590582        3.180077
  F           32.366537        6.179341        2.391108
  F           31.956881        8.357064        1.755888
  F           33.763645        7.869515        3.101883
  F           31.952648        9.001824        3.969045
  F           32.362304        6.824101        4.604266
  F           34.701052       32.949809       23.091488
  P           35.436972       31.857388       22.131311
  F           35.468762       30.793633       23.365942
  F           33.982905       31.281245       21.672347
  F           36.172892       30.764968       21.171134
  F           35.405181       32.921144       20.896680
  F           36.891039       32.433532       22.590275
  F           35.955204        5.453687       26.039224
  P           34.828743        6.302966       26.855747
  F           34.736768        5.113317       27.966232
  F           36.003275        7.024327       27.725813
  F           33.702282        7.152245       27.672271
  F           34.920718        7.492615       25.745263
  F           33.654211        5.581605       25.985682
  F           37.920369        7.798250       33.938327
  P           38.656907        6.501719       34.596673
  F           39.669772        6.429661       33.321600
  F           39.700227        7.486968       35.369764
  F           39.393444        5.205188       35.255020
  F           37.644042        6.573778       35.871747
  F           37.613587        5.516471       33.823583
  F           27.805025       28.479867       31.856029
  P           29.350963       28.028948       32.108315
  F           29.203303       28.406085       33.687196
  F           28.855813       26.508639       32.425154
  F           30.896900       27.578030       32.360601
  F           29.498622       27.651812       30.529434
  F           29.846112       29.549258       31.791476
  F           28.708197       30.751954       23.547601
  P           27.109004       31.062861       23.494519
  F           26.793917       29.500410       23.835646
  F           27.123189       31.407802       25.087540
  F           25.509811       31.373768       23.441437
  F           27.424091       32.625312       23.153392
  F           27.094819       30.717920       21.901498
  F           24.244456       31.986139       15.151302
  P           24.861525       33.319721       14.445835
  F           26.318205       32.991464       15.099465
  F           25.254221       32.441823       13.129786
  F           25.478594       34.653304       13.740369
  F           23.404846       33.647979       13.792206
  F           24.468829       34.197619       15.761884
  F           33.963406       28.158868       29.281092
  P           34.716000       28.927793       28.056651
  F           34.222584       27.766862       27.024333
  F           33.356940       29.775079       27.753393
  F           35.468594       29.696719       26.832210
  F           35.209416       30.088725       29.088968
  F           36.075059       28.080508       28.359908
  F            9.507427       14.138605       20.242054
  P            9.853780       12.556549       20.057559
  F           10.974659       12.932788       18.935518
  F           10.985404       12.668099       21.225414
  F           10.200134       10.974493       19.873065
  F            8.732902       12.180310       21.179601
  F            8.722157       12.444999       18.889705
  F           14.909015       33.699562       36.839425
  P           13.406840       34.260775       36.547179
  F           13.493753       33.698073       35.019857
  F           12.780090       32.837642       37.035830
  F           11.904664       34.821988       36.254932
  F           13.319927       34.823477       38.074501
  F           14.033589       35.683907       36.058528
  F            9.692072        8.703091       26.967641
  P            9.085456        7.415083       27.761338
  F            9.818594        6.416815       26.701683
  F           10.408870        7.377713       28.712168
  F            8.478840        6.127076       28.555034
  F            8.352318        8.413352       28.820992
  F            7.762042        7.452454       26.810508
  F            8.518823       21.821767        4.199077
  P            9.001524       23.147595        5.015214
  F           10.534643       22.891546        4.524414
  F            8.730514       24.060568        3.692363
  F            9.484224       24.473423        5.831352
  F            7.468405       23.403644        5.506014
  F            9.272533       22.234622        6.338065
  F           13.648255       19.665222       12.400918
  P           12.453458       20.206543       11.433275
  F           13.449118       20.104423       10.146756
  F           11.965584       18.672449       11.177472
  F           11.258661       20.747863       10.465633
  F           11.457798       20.308662       12.719795
  F           12.941332       21.740636       11.689079
  F           30.467985        6.250481       23.289733
  P           31.014143        6.759520       21.840771
  F           29.505824        6.647807       21.232993
  F           30.725032        8.303961       22.274378
  F           31.560302        7.268559       20.391809
  F           32.522462        6.871233       22.448549
  F           31.303254        5.215078       21.407164
  F           17.487378        4.820727        4.143321
  P           17.917092        5.338864        2.658808
  F           17.545871        6.867745        3.084975
  F           19.444980        5.564602        3.179867
  F           18.346807        5.857002        1.174295
  F           18.288314        3.809984        2.232640
  F           16.389205        5.113127        2.137749
  F           35.450757       24.168876       26.434970
  P           35.133774       25.164734       27.685846
  F           36.525477       24.708786       28.401509
  F           35.920910       26.371912       26.924245
  F           34.816790       26.160591       28.936722
  F           33.742070       25.620681       26.970183
  F           34.346637       23.957555       28.447447
  F           23.473325        4.984400       24.324419
  P           22.609273        4.222585       25.477655
  F           22.654328        2.847738       24.603202
  F           23.990679        3.790920       26.227509
  F           21.745221        3.460770       26.630890
  F           22.564218        5.597431       26.352107
  F           21.227867        4.654249       24.727800
  F           35.532802       18.394257       29.354356
  P           34.505922       17.580876       30.324319
  F           33.297284       18.582159       29.884403
  F           34.129610       16.584511       29.090404
  F           33.479041       16.767495       31.294281
  F           35.714560       16.579593       30.764235
  F           34.882233       18.577241       31.558234
  F           17.374976        2.356335       11.031202
  P           18.982250        2.142225       10.864690
  F           18.950431        0.999640       12.026752
  F           18.712886        0.999616        9.733855
  F           20.589524        1.928116       10.698178
  F           19.014069        3.284811        9.702629
  F           19.251614        3.284835       11.995525
  F           29.743834       33.232130       35.255172
  P           29.531934       33.050625       33.649229
  F           29.589087       34.668459       33.458839
  F           31.147091       32.969565       33.445275
  F           29.320035       32.869120       32.043285
  F           29.474781       31.432792       33.839618
  F           27.916777       33.131685       33.853182
  F           26.191228       26.690799       19.483982
  P           25.544847       27.356421       18.143819
  F           24.247801       27.835154       19.007177
  F           26.291013       28.765202       18.483634
  F           24.898465       28.022044       16.803655
  F           26.841892       26.877689       17.280460
  F           24.798681       25.947641       17.804003
  F           34.203187       13.423812       39.603485
  P           32.931272       13.487263       38.586084
  F           32.322744       12.134835       39.262496
  F           32.113455       14.394905       39.665093
  F           31.659357       13.550713       37.568682
  F           33.539800       14.839690       37.909671
  F           33.749090       12.579620       37.507075
  F            8.107441       19.550047       13.749731
  P            8.972968       18.238513       14.182906
  F            7.926679       17.949665       15.398944
  F            8.071278       17.314747       13.187661
  F            9.838494       16.926978       14.616081
  F           10.019256       18.527360       12.966868
  F            9.874657       19.162279       15.178151
  F           10.340223       33.114244       17.514029
  P           10.344261       33.112954       15.884034
  F           10.317741       34.742738       15.882679
  F           11.974040       33.139477       15.888051
  F           10.348299       33.111664       14.254040
  F           10.370780       31.483170       15.885390
  F            8.714482       33.086432       15.880018
  F           24.163295       25.424328       24.920227
  P           24.511347       25.712650       26.486315
  F           23.403262       24.605213       26.936461
  F           25.654985       24.551894       26.445849
  F           24.859398       26.000972       28.052403
  F           25.619431       26.820087       26.036168
  F           23.367708       26.873405       26.526781
  F           32.625813        8.944155       23.177432
  P           32.392228        8.684778       24.769620
  F           33.050497        7.200696       24.624426
  F           33.864988        9.306970       25.087042
  F           32.158644        8.425401       26.361807
  F           31.733959       10.168861       24.914813
  F           30.919469        8.062586       24.452197
  F            3.057772        3.431618       35.306884
  P            3.846632        4.600314       34.489113
  F            3.050574        5.736462       35.344893
  F            5.030224        4.585531       35.609734
  F            4.635492        5.769010       33.671342
  F            4.642691        3.464167       33.633333
  F            2.663040        4.615098       33.368492
  F            6.026280       35.420394       39.069094
  P            6.054379       35.481377       37.440477
  F            7.569315       34.879833       37.444091
  F            5.453480       33.967665       37.373429
  F            6.082478       35.542361       35.811861
  F            4.539443       36.082922       37.436864
  F            6.655278       36.995090       37.507526
  Li          33.965463       10.318479       19.864812
  Li          21.244598       29.549007       29.429938
  Li          33.282207       25.186710       10.472587
  Li          12.154805       18.807091       38.419156
  Li           3.380879       11.039874        6.183678
  Li          27.920882       24.047775       26.342223
  Li          12.730777        8.307491       23.500852
  Li          36.961408       13.268203       14.040350
  Li          17.729704       29.414279       26.427961
  Li           9.859614       26.576278       26.939291
  Li           5.519467        3.188146        4.224294
  Li          32.151541       13.407877       28.751565
  Li           6.271940       10.686039        9.268122
  Li          29.993956       10.584592       31.579531
  Li          36.271302       24.664225       13.327017
  Li          12.603451        5.594435        7.383142
  Li           2.722749       34.763814       35.492949
  Li           8.265339       32.998825       25.831470
  Li           1.784045       33.118052       22.588597
  Li          36.219625        7.843211       13.083775
  Li          14.845167        3.906134       12.268144
  Li           9.628176       21.722807        9.355410
  Li          11.714353       21.171219       37.698361
  Li          36.080341       30.270221        9.676630
  Li          29.530002       33.882962        6.019162
  Li          23.958817       33.275108        5.123548
  Li          30.453754       17.253758        4.325516
  Li           9.369795       10.333186       22.395108
  Li          20.915366       27.659949       24.180779
  Li          19.161528        9.703382       22.426790
  Li          28.936392       25.664493       11.822616
  Li          33.957359        5.376705        3.691311
  Li          12.557699       25.413009        5.648853
  Li          19.628038       21.365645       11.837952
