15
SL
O       -2.340000     0.580000     0.720000
S       -1.410000     0.270000    -0.340000
O       -1.820000     0.220000    -1.730000
C        0.000000     1.350000    -0.190000
C        1.210000     0.420000    -0.160000
C        0.780000    -0.810000     0.640000
C       -0.550000    -1.240000     0.060000
H        0.030000     2.050000    -1.030000
H       -0.090000     1.900000     0.750000
H        2.080000     0.910000     0.290000
H        1.480000     0.120000    -1.180000
H        0.660000    -0.530000     1.700000
H        1.520000    -1.610000     0.590000
H       -1.150000    -1.830000     0.760000
H       -0.410000    -1.800000    -0.870000
