        5100
  Built with Packmol                                             
  O           35.200338        8.769451       38.978994
  S           34.255472        8.116718       38.103912
  O           34.312760        8.268715       36.662970
  C           34.220823        6.379831       38.502688
  C           32.749236        6.059694       38.751370
  C           32.164107        7.279662       39.463481
  C           32.599444        8.482469       38.654817
  H           34.643814        5.795529       37.680393
  H           34.809995        6.226318       39.410163
  H           32.633447        5.149496       39.349395
  H           32.230517        5.906381       37.797051
  H           32.578013        7.337507       40.484135
  H           31.078062        7.221941       39.548779
  H           32.602326        9.409514       39.236779
  H           31.972380        8.605828       37.766182
  O           23.798619       36.025468       28.101337
  S           24.764999       35.367956       28.948914
  O           26.084013       35.923219       29.182550
  C           23.996549       35.018943       30.518842
  C           24.213458       33.524702       30.742658
  C           24.071372       32.865160       29.370573
  C           24.939744       33.671213       28.429080
  H           24.449221       35.630598       31.304631
  H           22.931306       35.248181       30.435730
  H           23.493544       33.119316       31.461606
  H           25.221955       33.344989       31.135006
  H           23.016794       32.914435       29.051454
  H           24.363440       31.814236       29.389398
  H           24.636991       33.574971       27.381617
  H           25.994031       33.397009       28.535815
  O           18.809158        1.452918       11.856184
  S           18.118649        2.034998       12.982674
  O           16.716524        1.771806       13.242436
  C           19.055988        1.693025       14.459648
  C           19.272404        3.054196       15.115603
  C           19.498265        4.044707       13.972941
  C           18.381569        3.798679       12.981649
  H           18.506285        1.000149       15.103270
  H           20.009597        1.249109       14.163392
  H           20.122030        3.034705       15.806439
  H           18.380226        3.344698       15.683870
  H           20.475280        3.840953       13.503554
  H           19.507410        5.077974       14.322763
  H           18.628741        4.132569       11.968968
  H           17.452369        4.274186       13.311165
  O           28.099323       39.510865       15.253551
  S           26.816957       39.430680       14.594985
  O           26.666623       39.683620       13.175083
  C           26.077705       37.856343       14.984817
  C           24.695353       38.193674       15.537277
  C           24.867825       39.469574       16.361980
  C           25.639400       40.431443       15.484666
  H           26.029880       37.230021       14.089309
  H           26.692017       37.370300       15.746776
  H           24.295346       37.373154       16.142454
  H           23.995394       38.379506       14.713369
  H           25.445625       39.238107       17.272458
  H           23.909839       39.887589       16.674432
  H           26.168660       41.200000       16.056771
  H           24.981931       40.905387       14.748996
  O           26.909004       29.734640       22.404834
  S           25.924508       30.580944       21.773061
  O           24.775294       31.091719       22.494945
  C           26.767293       31.941156       20.987863
  C           26.280021       31.927262       19.541394
  C           26.142834       30.454531       19.154043
  C           25.359986       29.800975       20.272173
  H           26.531036       32.877924       21.500842
  H           27.842216       31.750559       21.036995
  H           26.975258       32.455256       18.880056
  H           25.302630       32.419876       19.468328
  H           27.146636       30.003870       19.078643
  H           25.649734       30.329357       18.189012
  H           25.526109       28.720882       20.334642
  H           24.289197       30.005148       20.173055
  O           36.600630        2.389135       18.381930
  S           37.128287        3.693366       18.057647
  O           37.830627        3.949519       16.815148
  C           35.824439        4.894190       18.244730
  C           36.394924        5.955774       19.181473
  C           37.241871        5.204113       20.208842
  C           38.130682        4.272136       19.414087
  H           35.544851        5.302462       17.269208
  H           34.964881        4.396323       18.700237
  H           35.598974        6.535248       19.661238
  H           37.029549        6.652172       18.619709
  H           36.578341        4.623730       20.871626
  H           37.824367        5.882341       20.833986
  H           38.484951        3.417869       19.999596
  H           38.984945        4.810146       18.991147
  O            6.979375       21.960875        5.158829
  S            6.452383       23.262766        4.824229
  O            6.438727       23.757716        3.461314
  C            4.812387       23.402640        5.508224
  C            4.835827       24.685862        6.334475
  C            6.218547       24.746915        6.984211
  C            7.212700       24.488271        5.872922
  H            4.070276       23.434548        4.705260
  H            4.633562       22.533621        6.146210
  H            4.037237       24.693635        7.083937
  H            4.696709       25.556660        5.682051
  H            6.293730       23.959416        7.752711
  H            6.399242       25.705439        7.472762
  H            8.173717       24.113277        6.238882
  H            7.372117       25.388771        5.271436
  O           37.315373        8.536509       30.704309
  S           36.052297        8.099580       30.158111
  O           35.689201        8.342697       28.775449
  C           35.851455        6.364591       30.513744
  C           34.495442        6.256457       31.206157
  C           34.369999        7.498020       32.089665
  C           34.731050        8.674324       31.208672
  H           35.897587        5.782200       29.588977
  H           36.656252        6.058904       31.186839
  H           34.418118        5.334630       31.792464
  H           33.690912        6.252250       30.460494
  H           35.080706        7.419455       32.929382
  H           33.368992        7.601163       32.510909
  H           35.067541        9.546452       31.778117
  H           33.891485        8.954748       30.564782
  O           32.442854       40.644470       35.754093
  S           32.716484       40.369979       34.363272
  O           33.610094       41.199997       33.578905
  C           33.223194       38.667895       34.211102
  C           32.298114       38.072179       33.153157
  C           30.927214       38.709885       33.380675
  C           31.173133       40.199353       33.486544
  H           34.277573       38.612352       33.925267
  H           33.073057       38.179567       35.177121
  H           32.253044       36.980602       33.230159
  H           32.660545       38.326382       32.149502
  H           30.500445       38.326934       34.322809
  H           30.227025       38.472152       32.578603
  H           30.381788       40.724867       34.030335
  H           31.301349       40.647381       32.496124
  O           19.596655       20.055270       41.191987
  S           19.106439       21.226150       40.503997
  O           18.405833       22.287842       41.200173
  C           20.446371       21.933944       39.565590
  C           19.912427       22.053239       38.140609
  C           19.048627       20.813632       37.906039
  C           18.128508       20.714509       39.103435
  H           20.733109       22.901256       39.988187
  H           21.292995       21.244177       39.606198
  H           20.727660       22.120541       37.412347
  H           19.296012       22.955406       38.043523
  H           19.697891       19.923811       37.850585
  H           18.489708       20.875166       36.971200
  H           17.751898       19.700238       39.269326
  H           17.288534       21.410295       39.011646
  O           24.282135       29.029620       30.099729
  S           23.044921       29.418434       29.465123
  O           23.007306       29.939763       28.112533
  C           21.891303       28.066159       29.597472
  C           20.640960       28.672409       30.229139
  C           21.135865       29.692561       31.254888
  C           22.164958       30.538958       30.537407
  H           21.696665       27.638371       28.609740
  H           22.328046       27.307963       30.252143
  H           20.014998       27.903564       30.694487
  H           20.040985       29.180596       29.464238
  H           21.603610       29.160159       32.099970
  H           20.321872       30.298975       31.654610
  H           22.869912       31.023568       31.220263
  H           21.682719       31.293133       29.907515
  O           10.975637        7.632079       13.535428
  S           11.669249        8.280757       14.622956
  O           11.266971        8.102016       16.004594
  C           13.409942        7.926822       14.475581
  C           14.094706        9.290856       14.495829
  C           13.178777       10.236967       13.718817
  C           11.789502       10.026669       14.280856
  H           13.734744        7.282440       15.297636
  H           13.576030        7.423475       13.519936
  H           15.094909        9.242894       14.052216
  H           14.198825        9.644869       15.528850
  H           13.201320        9.967482       12.649579
  H           13.496346       11.277033       13.805492
  H           10.998280       10.319638       13.583549
  H           11.664156       10.561082       15.227847
  O           35.909204       31.239085       37.982109
  S           34.593569       31.767910       38.254227
  O           34.388789       33.145961       38.656397
  C           33.539482       31.407334       36.862865
  C           32.326747       30.696864       37.458186
  C           32.863371       29.813427       38.584851
  C           33.763656       30.700696       39.416981
  H           33.270670       32.331854       36.343727
  H           34.083523       30.744559       36.185409
  H           31.796759       30.108356       36.701700
  H           31.623861       31.431792       37.869443
  H           33.444470       28.983101       38.149785
  H           32.060449       29.379090       39.182151
  H           34.505061       30.136924       39.991941
  H           33.177177       31.333774       40.090298
  O           40.570296        7.647656       23.016645
  S           40.192712        8.665812       22.065125
  O           40.817918        8.766404       20.760634
  C           38.423035        8.618617       21.857719
  C           37.955100       10.047605       22.120265
  C           38.833627       10.580441       23.252552
  C           40.259553       10.261204       22.858824
  H           38.170323        8.273000       20.851148
  H           38.010539        7.932464       22.601521
  H           36.892867       10.078306       22.385252
  H           38.098321       10.661851       21.222774
  H           38.572509       10.061142       24.189860
  H           38.689018       11.649561       23.414327
  H           40.939086       10.216898       23.715779
  H           40.635240       10.982330       22.126064
  O            6.241995       33.025426       23.317076
  S            5.889660       31.996677       24.266884
  O            5.736227       32.278235       25.681056
  C            4.428688       31.160879       23.680367
  C            4.797636       29.679791       23.667866
  C            6.258528       29.610225       23.222047
  C            7.002107       30.616580       24.073246
  H            3.581367       31.376305       24.337740
  H            4.215197       31.516073       22.669200
  H            4.144030       29.110427       22.998445
  H            4.699780       29.258610       24.675998
  H            6.326820       29.888609       22.157041
  H            6.671931       28.606422       23.329643
  H            7.934661       30.958299       23.613169
  H            7.207850       30.212253       25.069383
  O           29.404336       34.878812       37.769124
  S           28.822896       34.152622       38.873287
  O           27.480646       34.425711       39.349192
  C           28.978575       32.407132       38.547665
  C           29.666108       31.833276       39.783743
  C           30.687532       32.881494       40.226161
  C           29.944353       34.199377       40.258873
  H           27.992631       31.966467       38.373801
  H           29.604836       32.279975       37.661196
  H           30.143264       30.871839       39.565887
  H           28.932147       31.673841       40.583231
  H           31.506248       32.924734       39.488439
  H           31.126798       32.641372       41.195432
  H           30.607209       35.065436       40.165802
  H           29.344512       34.289221       41.170036
  O           30.393121        8.941230       33.499339
  S           29.381268        8.377931       34.361574
  O           29.704005        7.820588       35.660770
  C           28.071191        9.571428       34.551998
  C           26.796053        8.824371       34.170120
  C           27.174723        7.904844       33.008707
  C           28.430799        7.181055       33.442991
  H           28.046848        9.943966       35.580163
  H           28.258787       10.397088       33.861133
  H           25.994855        9.517149       33.891479
  H           26.444170        8.222325       35.016890
  H           27.378103        8.515783       32.113280
  H           26.372814        7.208338       32.759871
  H           29.022815        6.810618       32.600142
  H           28.193246        6.354108       34.119620
  O            5.603093       19.437215       36.625407
  S            6.317328       18.411285       35.902956
  O            6.661742       18.557966       34.502040
  C            7.786763       17.991461       36.820294
  C            7.724238       16.476614       36.997010
  C            6.250859       16.136309       37.223171
  C            5.485941       16.850182       36.129789
  H            8.677692       18.313300       36.273334
  H            7.740986       18.497165       37.787955
  H            8.347853       16.145534       37.834262
  H            8.082608       15.976253       36.088986
  H            5.939271       16.511333       38.212449
  H            6.071834       15.060337       37.204909
  H            4.437100       17.026811       36.388315
  H            5.546289       16.300303       35.185283
  O           26.587270       36.704980       36.727967
  S           26.691749       37.760561       35.748460
  O           26.888402       37.482458       34.338961
  C           25.290967       38.846831       35.935078
  C           25.889715       40.242114       36.091881
  C           27.160561       40.067398       36.923882
  C           27.926573       38.931714       36.280728
  H           24.633901       38.768055       35.064125
  H           24.749497       38.553313       36.837772
  H           25.184222       40.928417       36.572264
  H           26.147123       40.654346       35.108465
  H           26.883918       39.801992       37.958014
  H           27.752878       40.982653       36.963504
  H           28.623413       38.443295       36.969176
  H           28.464970       39.275247       35.391788
  O           33.288977       11.013928       23.729008
  S           33.753205       11.863389       24.800226
  O           32.838882       12.477784       25.743217
  C           35.020184       10.994121       25.703630
  C           36.215260       11.943503       25.722813
  C           36.229695       12.635014       24.359214
  C           34.817186       13.125573       24.126035
  H           34.664939       10.746985       26.708231
  H           35.260887       10.078377       25.158035
  H           37.150320       11.405677       25.912301
  H           36.088794       12.692468       26.514242
  H           36.510951       11.902910       23.583767
  H           36.952132       13.451593       24.322034
  H           34.586226       13.273085       23.066319
  H           34.627043       14.051380       24.678148
  O           33.665005       34.287525       14.585435
  S           34.255458       34.111841       13.279640
  O           34.766175       32.829638       12.834866
  C           33.121549       34.740129       12.056323
  C           33.937220       35.733691       11.233271
  C           34.864666       36.442285       12.220964
  C           35.517447       35.348181       13.037672
  H           32.726578       33.919006       11.451133
  H           32.304328       35.245883       12.576478
  H           33.290100       36.443571       10.707148
  H           34.535307       35.200745       10.483898
  H           34.265910       37.098827       12.874297
  H           35.604207       37.063867       11.714194
  H           35.878946       35.699074       14.009419
  H           36.338666       34.882040       12.484128
  O           35.513604       17.627486       16.768415
  S           36.493001       16.639799       17.155528
  O           37.177796       16.697890       18.432392
  C           35.773930       15.021059       16.956486
  C           36.759492       14.255010       16.078000
  C           37.293957       15.263722       15.060824
  C           37.707078       16.481171       15.859166
  H           35.628995       14.550042       17.933029
  H           34.811522       15.135005       16.451524
  H           36.278329       13.402766       15.586410
  H           37.587688       13.871757       16.686695
  H           36.489549       15.527469       14.353883
  H           38.125274       14.859476       14.481516
  H           37.727004       17.397331       15.260539
  H           38.681925       16.327757       16.332703
  O           21.507783        4.613919       35.497468
  S           22.469334        4.121536       36.455371
  O           22.352415        4.402098       37.873226
  C           22.648377        2.363135       36.225216
  C           24.147448        2.137487       36.046974
  C           24.662367        3.327910       35.237312
  C           24.110574        4.562983       35.915781
  H           22.243353        1.826615       37.088119
  H           22.103260        2.080109       35.321366
  H           24.351626        1.187435       35.541789
  H           24.643945        2.114812       37.024867
  H           24.279757        3.257861       34.205274
  H           25.751918        3.347744       35.186478
  H           24.057240        5.428720       35.248132
  H           24.696362        4.817293       36.804757
  O            8.808597       19.895508        8.214554
  S            7.778549       20.875730        8.465083
  O            7.967730       22.281480        8.163790
  C            6.267854       20.317402        7.701491
  C            5.225827       20.347115        8.816478
  C            5.950446       19.899907       10.086412
  C            7.220894       20.719610       10.151602
  H            6.004708       20.970313        6.864256
  H            6.423632       19.296853        7.343144
  H            4.375544       19.696169        8.586720
  H            4.845305       21.367320        8.949459
  H            6.193645       18.827082       10.007036
  H            5.336039       20.035661       10.977577
  H            8.002813       20.247478       10.754756
  H            7.019302       21.726585       10.530365
  O           22.573708       12.758721       21.897327
  S           21.545482       13.245433       22.786406
  O           20.184952       13.468057       22.336855
  C           21.514617       12.210105       24.236973
  C           21.644405       13.173244       25.414010
  C           22.614617       14.265660       24.963327
  C           22.128908       14.719015       23.603638
  H           20.586284       11.632427       24.268382
  H           22.372309       11.534414       24.192171
  H           22.003487       12.660464       26.312685
  H           20.669240       13.619235       25.645195
  H           23.628765       13.839802       24.882393
  H           22.657943       15.092897       25.673187
  H           22.916339       15.184897       23.002800
  H           21.281365       15.405170       23.698315
  O           17.734786        2.895535        6.598390
  S           17.957173        2.553608        7.983392
  O           17.112189        1.606827        8.685040
  C           19.660548        2.066920        8.179984
  C           20.195652        2.944534        9.308416
  C           19.542964        4.315110        9.125880
  C           18.063777        4.051276        8.945331
  H           19.723522        1.000000        8.412826
  H           20.185113        2.275428        7.244273
  H           21.288463        3.011063        9.279479
  H           19.907299        2.525823       10.280442
  H           19.956254        4.796888        8.223948
  H           19.734978        4.975888        9.972403
  H           17.546617        4.861593        8.421851
  H           17.578077        3.864018        9.908207
  O           15.117946       21.881347        4.559170
  S           14.188402       21.106127        5.346305
  O           12.768393       21.082770        5.053512
  C           14.788066       19.430383        5.442660
  C           14.831709       19.110356        6.934497
  C           15.282619       20.394679        7.630913
  C           14.413002       21.499425        7.071000
  H           14.124255       18.759826        4.889298
  H           15.791228       19.401612        5.010181
  H           15.510909       18.277407        7.145171
  H           13.832123       18.830518        7.289207
  H           16.341902       20.585537        7.390303
  H           15.196575       20.323706        8.716113
  H           14.868421       22.490268        7.165461
  H           13.425848       21.499726        7.543893
  O           37.759896       39.160035       21.842596
  S           38.055107       38.717447       20.500372
  O           37.446391       37.529976       19.932852
  C           37.806394       40.085683       19.385440
  C           39.112689       40.202981       18.604585
  C           40.231076       39.890492       19.599250
  C           39.823270       38.610388       20.295833
  H           36.946521       39.892719       18.737456
  H           37.628966       40.983952       19.981956
  H           39.228954       41.200254       18.167058
  H           39.130672       39.470581       17.788150
  H           40.307707       40.713236       20.329743
  H           41.200073       39.791885       19.107902
  H           40.299264       38.486438       21.273670
  H           40.033886       37.738155       19.668975
  O           14.793803       26.488045       33.555848
  S           14.098479       25.967672       34.709251
  O           14.459339       26.351475       36.060241
  C           12.349833       26.226436       34.480605
  C           11.716860       24.851370       34.676660
  C           12.686896       23.845425       34.056254
  C           14.052865       24.187826       34.610412
  H           11.980614       26.964168       35.198887
  H           12.188564       26.586017       33.461343
  H           10.726861       24.796780       34.211448
  H           11.600632       24.639189       35.746600
  H           12.680687       23.963784       32.959736
  H           12.406843       22.815132       34.280231
  H           14.871643       23.834125       33.975906
  H           14.174823       23.794642       35.624628
  O            6.502315       25.973463        3.337177
  S            5.647771       26.444167        2.272850
  O            6.181488       26.885471        0.998842
  C            4.383268       25.222631        1.979793
  C            3.064943       25.985765        2.077486
  C            3.250189       27.011142        3.196452
  C            4.562765       27.707736        2.909919
  H            4.527252       24.758289        0.999918
  H            4.452182       24.465217        2.764507
  H            2.226741       25.311448        2.282946
  H            2.858949       26.504407        1.133093
  H            3.301672       26.486259        4.165084
  H            2.420375       27.717599        3.245727
  H            5.009196       28.160052        3.801104
  H            4.442237       28.467118        2.130874
  O           18.929423       35.612756       11.906097
  S           18.307535       34.521130       12.617580
  O           17.032405       33.965641       12.207487
  C           19.492570       33.198888       12.773684
  C           19.536674       32.880489       14.265856
  C           19.405534       34.220860       14.989738
  C           18.227054       34.924741       14.352608
  H           19.181717       32.340674       12.170908
  H           20.461436       33.566337       12.426582
  H           20.463669       32.364334       14.537454
  H           18.695251       32.231293       14.537612
  H           20.326875       34.807598       14.837197
  H           19.267313       34.093848       16.064384
  H           18.260040       36.011521       14.478783
  H           17.280601       34.536027       14.741488
  O            3.965386        6.596576       34.359604
  S            5.190538        6.155199       34.983133
  O            5.305673        4.853629       35.611910
  C            6.523514        6.355566       33.816931
  C            7.573973        7.182054       34.554057
  C            6.800630        8.193992       35.400060
  C            5.741939        7.400239       36.134451
  H            6.902258        5.377825       33.505364
  H            6.139781        6.899634       32.950363
  H            8.255596        7.678010       33.854830
  H            8.171332        6.535169       35.208275
  H            6.327058        8.936136       34.735717
  H            7.451589        8.733569       36.089414
  H            4.890848        8.012630       36.448649
  H            6.167902        6.886431       37.002009
  O            6.533208       39.191712       29.963037
  S            7.725565       38.461955       30.324065
  O            8.072330       38.194676       31.706460
  C            7.748962       36.929645       29.413857
  C            9.105048       36.905432       28.713612
  C            9.388892       38.346487       28.288652
  C            9.130937       39.199822       29.511550
  H            7.613606       36.084352       30.094782
  H            6.935881       36.953849       28.684121
  H            9.099832       36.225295       27.855191
  H            9.882434       36.566774       29.409516
  H            8.698582       38.628049       27.475882
  H           10.407011       38.470615       27.916999
  H            8.906868       40.242413       29.264777
  H            9.976702       39.157675       30.205095
  O            9.833819       24.301186       26.241874
  S           10.984216       23.684534       25.624682
  O           11.569133       24.202315       24.403013
  C           12.263869       23.515782       26.853913
  C           12.655357       22.040866       26.818392
  C           11.359715       21.263528       26.584176
  C           10.672515       21.940977       25.418407
  H           13.102293       24.177840       26.618915
  H           11.840604       23.781544       27.825725
  H           13.146849       21.735010       27.748116
  H           13.350833       21.855483       25.990596
  H           10.729382       21.327915       27.486914
  H           11.546424       20.207387       26.384662
  H            9.593069       21.760965       25.396230
  H           11.118213       21.633143       24.467254
  O           36.784050       22.931448        8.392309
  S           37.775194       22.729696        9.422615
  O           37.432869       22.176753       10.718673
  C           39.127175       21.795395        8.732524
  C           40.374710       22.621171        9.035265
  C           39.963230       24.085184        8.876674
  C           38.682103       24.245590        9.666093
  H           39.164959       20.798737        9.181685
  H           38.969172       21.712203        7.654417
  H           41.200159       22.359237        8.364799
  H           40.704918       22.440976       10.065697
  H           39.781742       24.297834        7.809789
  H           40.739664       24.768453        9.223651
  H           38.077106       25.093560        9.329900
  H           38.889984       24.341146       10.736493
  O           25.512272        8.634209       12.380530
  S           24.467132        8.042673       11.579051
  O           24.614916        6.735389       10.969241
  C           22.948921        8.078780       12.512180
  C           21.938358        8.766714       11.598173
  C           22.708746        9.864817       10.864367
  C           23.961075        9.206891       10.326772
  H           22.647109        7.062326       12.780938
  H           23.118273        8.668333       13.416584
  H           21.097336        9.175874       12.168059
  H           21.538060        8.049123       10.871451
  H           22.974552       10.661586       11.579144
  H           22.116730       10.317769       10.067843
  H           24.770493        9.919454       10.139167
  H           23.746831        8.642119        9.413957
  O           16.017599       13.090869       23.171553
  S           14.745578       12.552946       22.750602
  O           13.842661       13.298425       21.895206
  C           15.019587       10.941551       22.039739
  C           14.077146       10.009247       22.796387
  C           14.073166       10.495207       24.246086
  C           13.845941       11.990087       24.183621
  H           14.814534       10.963361       20.965506
  H           16.062166       10.664473       22.214257
  H           14.401485        8.965836       22.721576
  H           13.064113       10.079755       22.381545
  H           15.052531       10.278180       24.704501
  H           13.309327        9.995194       24.843276
  H           14.207918       12.514244       25.073751
  H           12.787727       12.219925       24.024068
  O           16.468129       23.374219        9.672666
  S           16.811242       24.247528        8.575303
  O           16.775300       23.798134        7.197097
  C           15.854364       25.744128        8.722181
  C           16.878933       26.874898        8.683227
  C           18.099979       26.367690        9.451074
  C           18.399498       24.992238        8.895537
  H           15.127604       25.808660        7.907223
  H           15.335048       25.724072        9.683487
  H           16.477794       27.793466        9.124611
  H           17.160640       27.092496        7.645638
  H           17.851751       26.298976       10.523483
  H           18.954303       27.038627        9.350711
  H           18.965628       24.365025        9.591382
  H           18.933167       25.061563        7.942388
  O           25.835400       27.984791       23.195467
  S           25.192970       28.498274       24.382152
  O           25.357945       29.874084       24.809503
  C           23.452612       28.124398       24.290653
  C           23.133810       27.400097       25.595893
  C           24.348664       26.523781       25.902489
  C           25.557722       27.422134       25.756407
  H           22.874794       29.045347       24.170319
  H           23.289404       27.467625       23.432625
  H           22.218489       26.804892       25.509768
  H           22.990461       28.126972       26.404845
  H           24.396202       25.700064       25.170621
  H           24.292815       26.080418       26.897682
  H           26.479418       26.867507       25.554008
  H           25.690698       28.048709       26.644000
  O           29.149409       18.167860       37.887050
  S           28.315154       18.089978       36.711230
  O           28.492089       18.985333       35.584406
  C           28.322961       16.407845       36.121851
  C           26.850930       16.017955       36.016915
  C           26.151708       16.676752       37.206401
  C           26.602462       18.121404       37.206607
  H           28.842214       16.347237       35.161016
  H           28.836310       15.789324       36.862192
  H           26.723657       14.930197       36.026012
  H           26.425473       16.401071       35.081229
  H           26.471281       16.178472       38.136986
  H           25.066022       16.592435       37.141004
  H           26.512876       18.596175       38.188782
  H           26.051091       18.704719       36.462406
  O           30.568960        4.168965       37.940444
  S           29.259723        4.248026       37.336915
  O           29.074323        4.653022       35.956950
  C           28.418381        2.699656       37.604676
  C           27.088107        3.078078       38.250484
  C           27.388951        4.248581       39.187081
  C           28.197033        5.236036       38.373364
  H           28.288444        2.171905       36.655416
  H           29.022893        2.096339       38.286420
  H           26.650481        2.231608       38.790366
  H           26.373011        3.395901       37.481765
  H           27.982204        3.885528       40.043027
  H           26.478361        4.700754       39.582636
  H           28.804978        5.902921       38.992852
  H           27.549616        5.827799       37.718559
  O           32.966705       33.662436       24.595085
  S           32.822124       32.698221       23.530197
  O           32.705670       33.100272       22.141856
  C           34.126640       31.492543       23.677091
  C           33.416761       30.141440       23.699244
  C           32.129810       30.351392       24.497665
  C           31.480273       31.591227       23.922245
  H           34.823175       31.586449       22.838927
  H           34.651317       31.670626       24.619005
  H           34.047162       29.365707       24.146830
  H           33.169299       29.829049       22.677248
  H           32.383087       30.512381       25.558954
  H           31.467960       29.485955       24.442221
  H           30.795113       32.078391       24.623192
  H           30.954257       31.362124       22.990086
  O           30.377929       29.356082       17.229403
  S           30.776968       29.960530       15.980399
  O           30.262652       29.498572       14.705733
  C           30.532345       31.722010       16.100183
  C           31.877461       32.335542       15.720522
  C           32.945641       31.413621       16.309465
  C           32.557526       30.010083       15.897584
  H           29.724704       32.036884       15.433047
  H           30.275093       31.961137       17.134997
  H           31.972475       33.357988       16.101410
  H           31.981431       32.369533       14.629039
  H           32.936977       31.503554       17.408663
  H           33.946922       31.673802       15.963282
  H           32.977259       29.241322       16.554038
  H           32.848493       29.810472       14.861440
  O           29.757565        1.038236        4.958012
  S           29.686271        1.869196        6.136580
  O           29.949245        1.344181        7.462439
  C           30.698039        3.312852        5.873559
  C           29.778102        4.497986        6.154760
  C           28.403229        4.105794        5.612810
  C           28.120435        2.722109        6.156542
  H           31.567316        3.290222        6.537144
  H           31.025431        3.314675        4.830961
  H           30.150848        5.414082        5.684304
  H           29.711259        4.674985        7.235271
  H           28.440848        4.081060        4.510824
  H           27.630408        4.819242        5.902361
  H           27.392682        2.167960        5.555381
  H           27.780795        2.770684        7.195958
  O           11.035603       23.209380       29.858771
  S           10.443264       24.059246       30.864486
  O           10.546944       23.760172       32.279585
  C           10.988581       25.732890       30.584227
  C            9.707513       26.559067       30.505510
  C            8.683961       25.686516       29.778327
  C            8.728809       24.336084       30.459884
  H           11.646653       26.056107       31.395998
  H           11.527669       25.761475       29.634086
  H            9.874192       27.506600       29.982155
  H            9.344705       26.788771       31.514919
  H            8.977407       25.588226       28.719730
  H            7.683237       26.119961       29.806230
  H            8.366238       23.523913       29.821902
  H            8.163492       24.350442       31.397067
  O            6.429221       16.368642       27.085231
  S            6.884537       17.631642       27.616380
  O            6.192106       18.302792       28.699337
  C            8.609857       17.479878       28.037376
  C            9.298033       18.631821       27.309818
  C            8.586825       18.768377       25.963217
  C            7.105855       18.784503       26.274132
  H            8.739402       17.532197       29.122264
  H            8.968321       16.516823       27.665586
  H           10.369134       18.441744       27.182882
  H            9.184230       19.560608       27.882273
  H            8.833566       17.898023       25.332342
  H            8.896506       19.665897       25.425949
  H            6.487925       18.480598       25.423306
  H            6.789577       19.771215       26.626932
  O           12.614003        4.149864       29.459963
  S           13.509522        4.621657       28.430372
  O           13.094340        4.735579       27.045690
  C           14.208102        6.175018       28.955781
  C           15.718823        5.988632       28.842283
  C           16.001943        4.548317       29.270229
  C           15.025602        3.685551       28.500429
  H           13.837419        6.987967       28.324744
  H           13.915337        6.346812       29.994518
  H           16.258659        6.708504       29.466671
  H           16.039369        6.133900       27.803318
  H           15.823805        4.449898       30.354194
  H           17.035938        4.259509       29.076467
  H           14.839065        2.719781       28.980629
  H           15.367280        3.527457       27.472634
  O           27.140654       34.923123       17.606582
  S           28.254162       34.006172       17.669027
  O           28.203345       32.694575       17.052724
  C           29.718053       34.854096       17.107734
  C           30.739491       34.663687       18.225906
  C           29.954865       34.745154       19.535686
  C           28.766402       33.823533       19.367247
  H           30.055488       34.434214       16.155717
  H           29.472801       35.911594       16.982231
  H           31.528366       35.422045       18.180395
  H           31.212184       33.677500       18.140494
  H           29.613011       35.782284       19.690278
  H           30.564373       34.465113       20.396021
  H           27.933517       34.075604       20.031222
  H           29.055638       32.778595       19.517402
  O            8.706027        5.745517        8.591639
  S            7.602636        4.926676        8.148214
  O            7.500883        3.522674        8.496247
  C            6.079899        5.743914        8.584557
  C            5.288273        5.828381        7.282216
  C            6.312085        6.103729        6.180493
  C            7.422346        5.095351        6.382217
  H            5.555109        5.175751        9.358046
  H            6.322944        6.742381        8.956301
  H            4.524722        6.612190        7.328404
  H            4.783317        4.874598        7.085703
  H            6.703284        7.128414        6.296184
  H            5.872683        6.026896        5.184942
  H            8.373513        5.414777        5.944783
  H            7.141214        4.116501        5.981071
  O           20.185008       30.913449       16.211589
  S           20.898420       29.669971       16.383064
  O           21.462821       28.948076       15.259223
  C           22.165438       29.909162       17.613696
  C           21.932000       28.805845       18.642334
  C           20.415604       28.648921       18.759457
  C           19.896514       28.548657       17.341468
  H           23.155430       29.849539       17.152327
  H           22.022813       30.895029       18.063056
  H           22.387431       29.055199       19.606650
  H           22.373690       27.864756       18.292247
  H           19.995660       29.539627       19.256135
  H           20.139057       27.776654       19.353404
  H           18.842490       28.829977       17.252065
  H           20.045745       27.541702       16.939136
  O            3.291312       28.534572       14.260625
  S            3.762778       27.428765       13.460931
  O            5.041593       27.466013       12.778330
  C            3.671507       25.942320       14.440294
  C            2.864849       24.959961       13.595206
  C            1.784850       25.787572       12.897738
  C            2.498567       26.974700       12.288201
  H            4.677490       25.575462       14.663707
  H            3.146101       26.177497       15.369186
  H            2.429610       24.165907       14.211279
  H            3.511339       24.490022       12.843868
  H            1.049383       26.128788       13.645440
  H            1.248148       25.208753       12.144731
  H            1.835433       27.827983       12.114245
  H            2.995671       26.696323       11.353593
  O           21.938258        9.648936       34.608581
  S           21.941988        9.343291       36.019668
  O           22.819946       10.026000       36.950151
  C           20.268123        9.440322       36.624451
  C           20.017952        8.101967       37.314466
  C           20.736015        7.048627       36.470275
  C           22.132154        7.583542       36.236049
  H           20.161833       10.289528       37.305664
  H           19.602262        9.565191       35.766991
  H           18.946850        7.889610       37.399003
  H           20.441753        8.114642       38.326163
  H           20.207476        6.931323       35.509398
  H           20.753821        6.074048       36.960151
  H           22.610532        7.154147       35.350117
  H           22.766531        7.422425       37.113379
  O           28.750655       29.836810       38.194521
  S           27.857224       29.345522       37.172260
  O           26.478968       28.998680       37.460029
  C           27.894921       30.477224       35.795732
  C           28.215336       29.611743       34.579928
  C           29.214802       28.558981       35.060096
  C           28.629870       27.977493       36.328925
  H           26.933534       30.990707       35.703157
  H           28.690189       31.205161       35.974215
  H           28.623593       30.210773       33.758959
  H           27.305009       29.117637       34.218732
  H           30.180500       29.046452       35.275039
  H           29.391985       27.789456       34.307410
  H           29.385513       27.524946       36.978775
  H           27.850499       27.243400       36.101356
  O            1.055901       27.285554       28.033485
  S            2.302073       27.269750       27.304509
  O            3.546617       26.853895       27.921658
  C            2.065212       26.346791       25.798174
  C            2.534310       27.279112       24.684341
  C            2.097595       28.685364       25.096087
  C            2.546864       28.857612       26.530900
  H            2.636599       25.414699       25.833123
  H            0.999608       26.126735       25.696870
  H            2.109242       26.991808       23.716729
  H            3.627298       27.243294       24.598353
  H            0.999085       28.758341       25.030125
  H            2.520594       29.452201       24.445600
  H            1.974623       29.620219       27.068554
  H            3.614785       29.092132       26.582349
  O           35.042407       33.639605       23.598386
  S           35.939377       34.556978       22.936214
  O           35.451959       35.647443       22.114016
  C           37.078630       35.205804       24.143744
  C           38.465158       34.938107       23.564282
  C           38.380425       33.577106       22.872693
  C           37.142328       33.627756       22.003929
  H           36.890452       36.271113       24.305630
  H           36.935657       34.656329       25.077465
  H           39.233367       34.946835       24.344845
  H           38.721305       35.709971       22.828133
  H           38.277427       32.787709       23.636005
  H           39.275266       33.358584       22.288221
  H           36.741784       32.635465       21.773661
  H           37.336858       34.172602       21.074736
  O           13.448757       31.912395       40.384200
  S           12.392758       30.982107       40.061662
  O           12.292264       29.684148       40.700336
  C           10.829658       31.825212       40.212965
  C           10.127293       31.600497       38.876519
  C           11.218822       31.663579       37.807694
  C           12.330338       30.758814       38.293628
  H           10.263447       31.421364       41.057247
  H           11.029168       32.887718       40.372575
  H            9.348681       32.350872       38.702737
  H            9.653789       30.611121       38.861404
  H           11.583113       32.701010       37.721503
  H           10.849734       31.359127       36.827295
  H           13.303339       31.006313       37.857608
  H           12.094494       29.707868       38.098717
  O           38.914364       35.215782       27.088576
  S           38.896639       36.478894       27.787742
  O           39.992196       36.899723       28.639421
  C           38.546668       37.772003       26.611990
  C           37.354825       38.526202       27.195594
  C           36.459604       37.469202       27.842997
  C           37.371802       36.619899       28.701356
  H           39.424600       38.411429       26.482113
  H           38.281972       37.305104       25.660076
  H           36.820415       39.089079       26.422887
  H           37.695668       39.237306       27.958127
  H           35.996870       36.852713       27.054189
  H           35.655406       37.916925       28.428582
  H           36.966885       35.621851       28.896402
  H           37.596279       37.119429       29.649079
  O           10.950658        4.676173       39.283735
  S           10.585557        4.126217       37.999660
  O           11.581837        3.687447       37.041742
  C            9.412667        2.809648       38.260375
  C            8.220726        3.159462       37.373353
  C            8.075396        4.680141       37.438267
  C            9.457701        5.241804       37.185346
  H            9.861725        1.847146       37.998772
  H            9.125605        2.812301       39.314789
  H            7.309848        2.652468       37.709149
  H            8.417842        2.852161       36.338940
  H            7.725606        4.968897       38.443586
  H            7.349260        5.053163       36.714609
  H            9.587490        6.252258       37.585640
  H            9.694996        5.234207       36.116826
  O            4.175422        0.999972       35.302884
  S            3.887182        2.286882       34.715192
  O            3.609010        3.455889       35.526820
  C            5.180735        2.681671       33.554217
  C            4.457643        2.996657       32.247380
  C            3.280869        2.023636       32.168432
  C            2.585744        2.100977       33.510452
  H            5.771502        3.526236       33.920558
  H            5.818860        1.801646       33.442176
  H            5.125530        2.892737       31.385622
  H            4.082780        4.027448       32.263178
  H            3.663901        1.003736       31.996703
  H            2.603649        2.266064       31.348248
  H            1.998719        1.205872       33.739117
  H            1.946674        2.987560       33.570956
  O           20.823300       22.777468       26.049672
  S           20.983925       21.652114       25.159517
  O           20.974693       21.806993       23.717772
  C           22.449538       20.757152       25.637033
  C           21.988797       19.314237       25.825746
  C           20.594945       19.392060       26.449381
  C           19.816943       20.380701       25.608250
  H           23.218825       20.854077       24.865474
  H           22.812532       21.174902       26.579329
  H           22.683339       18.752202       26.459173
  H           21.930010       18.807436       24.854666
  H           20.680846       19.759241       27.485817
  H           20.106269       18.417272       26.482284
  H           18.974799       20.828196       26.145504
  H           19.460303       19.914733       24.684247
  O           12.394287        8.721325       10.984809
  S           11.847718        7.915623        9.918644
  O           12.003401        8.280831        8.523981
  C           12.394907        6.234063       10.142117
  C           11.118252        5.397426       10.132795
  C           10.060708        6.229024       10.859325
  C           10.121185        7.609950       10.243220
  H           13.086214        5.952931        9.342392
  H           12.897264        6.164547       11.110107
  H           11.272075        4.427589       10.617827
  H           10.796335        5.212757        9.100532
  H           10.312451        6.279719       11.931918
  H            9.065214        5.791334       10.772616
  H            9.728017        8.389362       10.903550
  H            9.592456        7.635810        9.285161
  O           19.679652       27.077792       11.474533
  S           20.009629       26.629857       12.806850
  O           21.182582       27.112218       13.509851
  C           18.579378       26.847796       13.847948
  C           18.340879       25.481207       14.484699
  C           18.667039       24.447810       13.406037
  C           20.012614       24.846998       12.840107
  H           18.768525       27.628814       14.590062
  H           17.736174       27.132899       13.213974
  H           17.310268       25.380517       14.841353
  H           19.011140       25.342840       15.341965
  H           17.895866       24.489043       12.618641
  H           18.681318       23.431947       13.803425
  H           20.182097       24.461107       11.829928
  H           20.826039       24.527481       13.499159
  O           22.213343       15.565463       39.148199
  S           21.920486       16.768946       39.890131
  O           21.179515       16.740736       41.136272
  C           23.441358       17.664173       40.140164
  C           23.164890       19.069847       39.613337
  C           22.277889       18.894011       38.380409
  C           21.163942       17.958931       38.798675
  H           23.711990       17.659384       41.199992
  H           24.224320       17.177084       39.553722
  H           24.094253       19.595746       39.369999
  H           22.631133       19.657665       40.370221
  H           22.870555       18.440333       37.568421
  H           21.890266       19.846360       38.015882
  H           20.702342       17.439900       37.952724
  H           20.396561       18.492627       39.368233
  O           27.218694       20.740749       14.327476
  S           27.377761       21.929804       15.130873
  O           27.114018       23.253955       14.601948
  C           26.461193       21.717110       16.644697
  C           27.467524       21.991649       17.759069
  C           28.797524       21.406337       17.283349
  C           28.998555       21.920420       15.874269
  H           25.610054       22.403714       16.669938
  H           26.107574       20.683982       16.687136
  H           27.146528       21.545937       18.706593
  H           27.574595       23.072575       17.912155
  H           28.729513       20.305535       17.280528
  H           29.624903       21.685847       17.937123
  H           29.670500       21.291034       15.282270
  H           29.367774       22.950822       15.881321
  O           37.122452        3.347565       29.245361
  S           36.318670        2.304573       28.653159
  O           36.178253        1.000153       29.270791
  C           34.697397        2.962862       28.313849
  C           34.450682        2.666744       26.836911
  C           35.795287        2.859884       26.135104
  C           36.806577        2.085293       26.952111
  H           33.955339        2.492395       28.965394
  H           34.721952        4.040310       28.494690
  H           33.680142        3.324257       26.420443
  H           34.115339        1.629874       26.711429
  H           36.051611        3.932579       26.130308
  H           35.768442        2.520654       25.098618
  H           37.831315        2.444646       26.814713
  H           36.756695        1.015375       26.726529
  O            9.495391       30.208752        5.472353
  S           10.589174       31.151205        5.467504
  O           11.721089       31.017381        6.363918
  C           11.188817       31.314097        3.796907
  C           11.159381       32.812958        3.509765
  C            9.905386       33.352337        4.198508
  C            9.936652       32.804660        5.608923
  H           12.194137       30.891048        3.714075
  H           10.503825       30.778709        3.134831
  H           11.146330       33.013769        2.433195
  H           12.048726       33.295323        3.933664
  H            9.012113       32.983584        3.667014
  H            9.870267       34.442650        4.189316
  H            8.947012       32.770296        6.075326
  H           10.622209       33.380607        6.238523
  O           34.876852       18.124703       28.580581
  S           34.325268       18.467514       29.870091
  O           34.731308       19.661859       30.585193
  C           32.547066       18.439627       29.750845
  C           32.089208       17.511937       30.873190
  C           33.122741       16.387285       30.942227
  C           34.475504       17.065413       30.961532
  H           32.146188       19.452121       29.854054
  H           32.276996       18.029957       28.774407
  H           31.082464       17.123676       30.685519
  H           32.070930       18.054346       31.826479
  H           33.028507       15.751984       30.045615
  H           32.977431       15.750968       31.816347
  H           35.284061       16.414533       30.614125
  H           34.710083       17.444951       31.961044
  O           18.767499       20.642315       15.697280
  S           17.852098       20.341034       14.622166
  O           17.956641       20.978975       13.324166
  C           17.804923       18.573495       14.397268
  C           16.326064       18.203556       14.474846
  C           15.717468       19.110319       15.544983
  C           16.178750       20.513074       15.213780
  H           18.254885       18.303234       13.437584
  H           18.364016       18.110594       15.214176
  H           16.190983       17.144487       14.719034
  H           15.839022       18.393735       13.510521
  H           16.097604       18.808835       16.535439
  H           14.629226       19.038731       15.571534
  H           16.162217       21.183138       16.079136
  H           15.581176       20.941599       14.402994
  O            3.827960       22.922801       39.920153
  S            4.419050       21.868450       39.130496
  O            3.658935       21.136935       38.135604
  C            5.909529       22.492289       38.377969
  C            6.998336       21.497487       38.771373
  C            6.683892       21.069331       40.205112
  C            5.216131       20.700918       40.217341
  H            5.781985       22.567342       37.294180
  H            6.116184       23.479810       38.797847
  H            7.995311       21.944060       38.693183
  H            6.966111       20.622691       38.110317
  H            6.868974       21.916944       40.886065
  H            7.311504       20.238748       40.531204
  H            4.768952       20.762928       41.214480
  H            5.059266       19.699809       39.803489
  O            1.748028       38.310539       30.108948
  S            2.801263       38.782683       30.976344
  O            4.158995       38.969797       30.502792
  C            2.252270       40.281458       31.769616
  C            2.445597       40.032938       33.263189
  C            2.086241       38.565632       33.499146
  C            2.839798       37.778247       32.449205
  H            2.833666       41.134458       31.407858
  H            1.194873       40.424675       31.533816
  H            1.821441       40.702808       33.864192
  H            3.492654       40.204998       33.541339
  H            0.999393       38.432237       33.367358
  H            2.340479       38.239193       34.508552
  H            2.387755       36.803388       32.240859
  H            3.888123       37.646102       32.734956
  O           41.200869        9.676658       18.795083
  S           39.925676       10.353268       18.768974
  O           38.727045        9.752528       19.321329
  C           40.133439       11.980009       19.467220
  C           39.578957       12.936624       18.414919
  C           39.976285       12.352341       17.058990
  C           39.583584       10.891525       17.103756
  H           39.602113       12.051910       20.420647
  H           41.201592       12.150792       19.622406
  H           39.972550       13.949905       18.548511
  H           38.485584       12.985348       18.488820
  H           41.067033       12.449118       16.927448
  H           39.494733       12.874822       16.231210
  H           40.147611       10.276190       16.395706
  H           38.510358       10.768013       16.927600
  O           38.205947       20.330714       31.571765
  S           38.899180       19.084331       31.796613
  O           39.104939       18.550493       33.129047
  C           38.150015       17.828007       30.778083
  C           39.304539       17.218787       29.986991
  C           40.244882       18.376192       29.649399
  C           40.465742       19.125076       30.945777
  H           37.636081       17.092314       31.403484
  H           37.434610       18.312826       30.109243
  H           38.947369       16.712619       29.083817
  H           39.834579       16.480951       30.601772
  H           39.760135       19.033543       28.908244
  H           41.184832       18.027707       29.219106
  H           40.772824       20.164266       30.791228
  H           41.200037       18.612339       31.575072
  O           15.198467       22.530697       27.006866
  S           16.271995       21.633824       26.649434
  O           17.158898       21.904732       25.534664
  C           17.250671       21.313926       28.104377
  C           17.305069       19.792786       28.218713
  C           15.929473       19.285272       27.785163
  C           15.621355       19.982487       26.477817
  H           18.242783       21.762054       27.997636
  H           16.735925       21.749470       28.964341
  H           17.548558       19.476817       29.238701
  H           18.074067       19.391732       27.547074
  H           15.183212       19.561716       28.548754
  H           15.908590       18.199764       27.678689
  H           14.549288       20.030701       26.262295
  H           16.144728       19.503170       25.644488
  O           26.525314        5.345300       11.802939
  S           26.091739        4.374027       10.826599
  O           25.661273        4.762001        9.497360
  C           27.345167        3.114659       10.685496
  C           26.609045        1.796246       10.908680
  C           25.560592        2.072921       11.986640
  C           24.840957        3.332043       11.554275
  H           27.823281        3.166755        9.703053
  H           28.087146        3.282372       11.470059
  H           27.297597        0.999853       11.210599
  H           26.111480        1.481186        9.983225
  H           26.067305        2.237015       12.952412
  H           24.871438        1.236524       12.111566
  H           24.363679        3.858061       12.387108
  H           24.098024        3.113553       10.780704
  O           30.980228       20.831913       19.959831
  S           31.223534       19.416493       20.108119
  O           32.531399       18.895136       20.455070
  C           30.015607       18.749493       21.236402
  C           29.374338       17.584510       20.487077
  C           29.269151       18.025709       19.026913
  C           30.632979       18.566626       18.655993
  H           30.500325       18.434635       22.165064
  H           29.278474       19.528362       21.446634
  H           28.393472       17.332263       20.903937
  H           30.011651       16.694499       20.557885
  H           28.508815       18.820057       18.941473
  H           28.967933       17.206497       18.372499
  H           30.600921       19.261842       17.811156
  H           31.332164       17.752952       18.438799
  O           19.165881       11.429482       38.902211
  S           20.124701       12.461211       39.219702
  O           19.981584       13.308260       40.387917
  C           21.753885       11.738203       39.223970
  C           22.575159       12.606457       38.274474
  C           21.635236       12.991674       37.131691
  C           20.367226       13.494675       37.786930
  H           22.159522       11.728373       40.239776
  H           21.674663       10.716382       38.844755
  H           23.458576       12.072969       37.907779
  H           22.916401       13.511640       38.791676
  H           21.419703       12.098259       36.521974
  H           22.075911       13.743031       36.474904
  H           19.492595       13.426173       37.132385
  H           20.487891       14.525060       38.135995
  O           14.304548       24.758198       37.598017
  S           15.600697       24.807126       38.232212
  O           15.810120       24.334786       39.587106
  C           16.787482       24.025896       37.156005
  C           17.900729       25.055298       36.980189
  C           17.211680       26.418747       36.916800
  C           16.258327       26.458610       38.091418
  H           17.145241       23.093643       37.602561
  H           16.297406       23.817618       36.201727
  H           18.488851       24.858171       36.077552
  H           18.580470       25.025827       37.840645
  H           16.652048       26.499101       35.969828
  H           17.927719       27.241126       36.949708
  H           15.438165       27.169813       37.951326
  H           16.789927       26.685839       39.020864
  O           31.782957        9.616175       13.000228
  S           31.497514       10.156903       11.692277
  O           31.027042       11.516385       11.510162
  C           32.916364        9.889585       10.647095
  C           32.370922        9.174245        9.413936
  C           31.285785        8.223503        9.920263
  C           30.399854        9.048507       10.828390
  H           33.389942       10.844767       10.402448
  H           33.621420        9.251532       11.185596
  H           33.162120        8.636164        8.881043
  H           31.929617        9.901211        8.721064
  H           31.757032        7.404973       10.489768
  H           30.719933        7.775469        9.102231
  H           29.847095        8.441084       11.551988
  H           29.700898        9.657979       10.246924
  O           37.940112        1.384309       11.727342
  S           38.198329        2.395120       10.729251
  O           38.254634        2.079994        9.314957
  C           37.056916        3.741295       10.978222
  C           37.931368        4.988025       11.082628
  C           39.186571        4.563193       11.845375
  C           39.671272        3.295234       11.176389
  H           36.348919        3.794304       10.146098
  H           36.519842        3.564680       11.913401
  H           37.406429        5.803249       11.591889
  H           38.209850        5.337869       10.080951
  H           38.921624        4.361157       12.896747
  H           39.951752        5.340732       11.839691
  H           40.293981        2.678211       11.831840
  H           40.216158        3.521490       10.254430
  O           19.870793       20.615002       18.788582
  S           20.063303       21.109857       20.131213
  O           20.918197       22.246288       20.414727
  C           18.463820       21.390051       20.866159
  C           18.489004       20.611329       22.178736
  C           19.268167       19.326720       21.895038
  C           20.536970       19.756110       21.190792
  H           18.300500       22.461042       21.017173
  H           17.703404       20.988907       20.191586
  H           17.476168       20.398083       22.536770
  H           19.006297       21.192690       22.951865
  H           18.668758       18.676508       21.235999
  H           19.481894       18.767763       22.807172
  H           20.982325       18.957381       20.589301
  H           21.273890       20.134963       21.905998
  O           11.695220       10.731657       35.190018
  S           13.112788       10.517928       35.018498
  O           13.637725        9.320261       34.391811
  C           13.807170       11.946917       34.210523
  C           14.957693       12.390689       35.110114
  C           14.485696       12.162205       36.546364
  C           13.933108       10.753865       36.584100
  H           14.140421       11.685258       33.202069
  H           13.035067       12.718544       34.159051
  H           15.221573       13.438974       34.934146
  H           15.847200       11.779712       34.913175
  H           13.691865       12.888852       36.787646
  H           15.291591       12.299339       37.268740
  H           13.220094       10.596998       37.399639
  H           14.739968       10.017318       36.651739
  O           28.127157       12.350751       32.858135
  S           28.621151       13.461911       33.636527
  O           27.743039       14.508329       34.122971
  C           29.569317       12.819392       35.002232
  C           30.920074       13.524699       34.913363
  C           31.236964       13.648167       33.422680
  C           29.990646       14.214350       32.777445
  H           29.053709       13.018520       35.946158
  H           29.684213       11.741896       34.860802
  H           31.697970       12.967662       35.446361
  H           30.853145       14.524504       35.359692
  H           31.455850       12.647481       33.013881
  H           32.108260       14.278795       33.240326
  H           29.922926       13.987777       31.708718
  H           29.926146       15.296216       32.930756
  O            7.738871       26.276035       20.892528
  S            7.746716       26.082306       19.461791
  O            6.949010       25.053857       18.822528
  C            7.412180       27.647137       18.676687
  C            8.559175       27.848555       17.689907
  C            9.810728       27.300974       18.376617
  C            9.432941       25.932755       18.901452
  H            6.435575       27.621139       18.184685
  H            7.421146       28.423491       19.445709
  H            8.675322       28.904047       17.421676
  H            8.367509       27.284051       16.769093
  H           10.086843       27.965908       19.212095
  H           10.662317       27.251689       17.696568
  H           10.067553       25.603537       19.730296
  H            9.453096       25.186121       18.101306
  O           14.202536       29.445616       20.973541
  S           14.166760       28.009138       20.832647
  O           14.873573       27.324979       19.767263
  C           14.619320       27.275735       22.392874
  C           13.483764       26.309907       22.720881
  C           12.198193       26.991296       22.250969
  C           12.469189       27.463325       20.838896
  H           15.586378       26.771919       22.306443
  H           14.679498       28.071627       23.139288
  H           13.450605       26.080303       23.791247
  H           13.621420       25.367673       22.176322
  H           11.983706       27.852756       22.905403
  H           11.339552       26.319778       22.294548
  H           11.817334       28.287329       20.531974
  H           12.382108       26.637710       20.125540
  O           39.717743       23.661919       12.657998
  S           40.060867       23.701701       14.059884
  O           41.200998       22.980369       14.591375
  C           40.164822       25.406631       14.569202
  C           39.239539       25.516081       15.778239
  C           38.041741       24.614172       15.478837
  C           38.619696       23.290790       15.026259
  H           41.200059       25.666289       14.808704
  H           39.804956       26.030717       13.747488
  H           38.930635       26.552200       15.952985
  H           39.753217       25.159088       16.679345
  H           37.441878       25.063793       14.669885
  H           37.391802       24.495305       16.346910
  H           37.922853       22.707064       14.416527
  H           38.951393       22.694180       15.881907
  O           11.037064       27.998891       32.229075
  S           11.901693       28.528323       31.201106
  O           12.473607       27.684290       30.169980
  C           11.083670       29.911670       30.430269
  C           12.082673       31.062335       30.518954
  C           12.778883       30.916380       31.872390
  C           13.210067       29.468724       31.964979
  H           10.818262       29.665540       29.398049
  H           10.180815       30.136698       31.003344
  H           11.584222       32.032946       30.424300
  H           12.822880       30.981572       29.713429
  H           12.062012       31.151914       32.676765
  H           13.625408       31.597135       31.972728
  H           13.351339       29.130740       32.996439
  H           14.125091       29.294184       31.390203
  O           21.548756       31.548481       10.782100
  S           22.764091       31.295799       11.519469
  O           22.878122       31.590651       12.934658
  C           23.256246       29.605976       11.237900
  C           24.702448       29.689425       10.756820
  C           24.784428       30.934454        9.873089
  C           24.134652       32.049608       10.663294
  H           23.153677       29.024791       12.158879
  H           22.612180       29.188114       10.460230
  H           24.994784       28.786633       10.210006
  H           25.378632       29.800623       11.613390
  H           24.225741       30.754405        8.939359
  H           25.812982       31.177364        9.602588
  H           23.768966       32.864185       10.030177
  H           24.820656       32.447322       11.417827
  O           10.655407        6.607051       21.291369
  S            9.657854        6.100081       20.378972
  O            9.860118        4.880056       19.621787
  C            8.101975        5.995353       21.242264
  C            7.114772        6.772408       20.375364
  C            7.889864        7.965278       19.814923
  C            9.177834        7.399924       19.256614
  H            7.812306        4.948564       21.371979
  H            8.220505        6.472580       22.218177
  H            6.241927        7.094079       20.953437
  H            6.761101        6.142369       19.549975
  H            8.107901        8.673020       20.632213
  H            7.321189        8.502023       19.054257
  H            9.978045        8.144013       19.192624
  H            9.014251        6.947540       18.273411
  O            9.859665        5.126546       17.373900
  S            9.372272        3.787307       17.142626
  O           10.266093        2.647946       17.067537
  C            8.088031        3.439444       18.328677
  C            6.891565        2.986918       17.495857
  C            6.904416        3.847554       16.232156
  C            8.320796        3.788544       15.702454
  H            8.422755        2.672347       19.032965
  H            7.859865        4.363611       18.865386
  H            5.953496        3.098047       18.050092
  H            7.000655        1.930105       17.222825
  H            6.640215        4.885138       16.496765
  H            6.181827        3.499609       15.492629
  H            8.573422        4.640990       15.064005
  H            8.498265        2.854763       15.159631
  O           29.259197       19.733032        2.335443
  S           29.788313       20.849175        3.083013
  O           30.373005       20.682600        4.399481
  C           30.938109       21.731472        2.045458
  C           30.460273       23.180978        2.067896
  C           28.932367       23.123957        2.075230
  C           28.557617       22.137273        3.159766
  H           31.955909       21.619577        2.430246
  H           30.873975       21.317400        1.036185
  H           30.838949       23.740334        1.205790
  H           30.814546       23.680433        2.978025
  H           28.577709       22.764338        1.094775
  H           28.487034       24.104419        2.249791
  H           27.562775       21.703700        3.016924
  H           28.620642       22.599637        4.149891
  O           33.963181       28.974624       31.356366
  S           34.223275       29.525927       32.665189
  O           35.041023       28.832096       33.641195
  C           34.839968       31.186562       32.467751
  C           33.933527       32.052032       33.339087
  C           32.528248       31.465000       33.203498
  C           32.675566       29.975686       33.428086
  H           35.888983       31.238181       32.773369
  H           34.744882       31.462863       31.414748
  H           33.963860       33.101858       33.028532
  H           34.255298       31.999073       34.386445
  H           32.149591       31.660634       32.186273
  H           31.827774       31.912633       33.909940
  H           31.863064       29.394327       32.980915
  H           32.750952       29.745264       34.495477
  O           28.465364       10.739348       22.039411
  S           27.586540       10.485980       23.156583
  O           28.090211       10.316247       24.505733
  C           26.310251       11.730162       23.166520
  C           24.997836       10.951258       23.194330
  C           25.214940        9.722474       22.310726
  C           26.522780        9.110012       22.763103
  H           26.427982       12.384347       24.035244
  H           26.395597       12.313813       22.246592
  H           24.162295       11.562552       22.836989
  H           24.770528       10.632500       24.219037
  H           25.288363       10.041058       21.257392
  H           24.389450        9.013244       22.385955
  H           26.993025        8.490830       21.992660
  H           26.385985        8.522824       23.676667
  O            9.451695       32.401780       30.820295
  S            9.298641       32.200727       29.398764
  O           10.366236       31.657608       28.581473
  C            7.814483       31.254661       29.117282
  C            7.005434       32.075236       28.116284
  C            7.222207       33.540548       28.495325
  C            8.717318       33.712951       28.653819
  H            8.067245       30.260556       28.737326
  H            7.281273       31.165805       30.067014
  H            5.944496       31.804594       28.142027
  H            7.375368       31.899456       27.098664
  H            6.712026       33.747724       29.450936
  H            6.814203       34.221538       27.747070
  H            8.983727       34.562249       29.290859
  H            9.206242       33.813843       27.679718
  O           19.036360        9.830933       30.822034
  S           18.221870        8.828063       31.466594
  O           18.102266        7.482304       30.939976
  C           18.687612        8.738947       33.184774
  C           17.383919        8.917143       33.958422
  C           16.564386        9.945080       33.177711
  C           16.586958        9.487203       31.735477
  H           19.172285        7.781139       33.395003
  H           19.378225        9.559590       33.394056
  H           17.570531        9.246442       34.986156
  H           16.838133        7.966563       34.001015
  H           17.041167       10.935323       33.269895
  H           15.545626       10.030752       33.558354
  H           16.397390       10.299634       31.026872
  H           15.869760        8.677139       31.569568
  O            7.790641       25.643718       39.023689
  S            8.749914       26.643054       38.616597
  O            8.777803       27.175257       37.268012
  C            8.681746       27.997640       39.773078
  C           10.121161       28.190124       40.243114
  C           10.723290       26.788822       40.350795
  C           10.389005       26.090815       39.050318
  H            8.277004       28.889481       39.285940
  H            8.037830       27.703429       40.605552
  H           10.161780       28.721274       41.200052
  H           10.683000       28.776730       39.505869
  H           10.257947       26.257771       41.198049
  H           11.799246       26.818218       40.528426
  H           10.397977       24.999722       39.137125
  H           11.068288       26.403632       38.251055
  O            3.432712       13.449189       30.702586
  S            3.680959       13.038168       32.064215
  O            3.266778       13.843964       33.196402
  C            3.063776       11.379541       32.276449
  C            4.241712       10.587221       32.837336
  C            5.488634       11.127681       32.136701
  C            5.408238       12.634830       32.247325
  H            2.201311       11.381223       32.949243
  H            2.770368       10.996622       31.295896
  H            4.117700        9.512332       32.667821
  H            4.326109       10.752222       33.918517
  H            5.470681       10.822593       31.076985
  H            6.407225       10.738735       32.578302
  H            5.989576       13.150830       31.476683
  H            5.726045       12.973145       33.238607
  O           36.930921        9.783079       32.927546
  S           36.425964       10.835653       33.777080
  O           35.771187       12.010759       33.235699
  C           35.374821       10.106380       35.018151
  C           35.926361       10.609064       36.349696
  C           37.447084       10.640830       36.194156
  C           37.717417       11.358919       34.889752
  H           34.335352       10.405480       34.855224
  H           35.465255        9.019714       34.946183
  H           35.619098        9.963340       37.179231
  H           35.555725       11.621291       36.552986
  H           37.828790        9.607227       36.145528
  H           37.934358       11.135090       37.035804
  H           38.693848       11.111969       34.461150
  H           37.631534       12.443091       35.013422
  O           19.281968       30.375679        4.379638
  S           19.049116       29.464678        5.475292
  O           18.354753       29.875482        6.680198
  C           18.275052       27.993053        4.833306
  C           19.148561       26.840583        5.321870
  C           20.590837       27.343861        5.255902
  C           20.591406       28.696493        5.934567
  H           17.245004       27.920570        5.194204
  H           18.284055       28.051135        3.742093
  H           19.005981       25.943429        4.710081
  H           18.893736       26.587858        6.358448
  H           20.891111       27.448084        4.199790
  H           21.287685       26.652737        5.732191
  H           21.425842       29.331273        5.620129
  H           20.598688       28.589106        7.023840
  O           14.156319       23.894189        8.996399
  S           13.474217       23.674109       10.249755
  O           13.400965       24.698483       11.273470
  C           11.829000       23.082613        9.902781
  C           11.694750       21.791255       10.705446
  C           13.059205       21.104781       10.636046
  C           14.078231       22.167092       10.987162
  H           11.089063       23.834631       10.191680
  H           11.757436       22.882378        8.830874
  H           10.900737       21.152054       10.304863
  H           11.450549       22.020555       11.749997
  H           13.229686       20.738617        9.609762
  H           13.120966       20.247946       11.308445
  H           15.077676       21.943959       10.600613
  H           14.126657       22.322017       12.069638
  O           13.920361       36.566734       17.958595
  S           14.745752       36.963543       16.842408
  O           14.497440       36.484904       15.496323
  C           14.844825       38.743004       16.815871
  C           16.338551       39.056373       16.793881
  C           17.004224       38.012895       17.691562
  C           16.457501       36.673004       17.248858
  H           14.320900       39.136926       15.940184
  H           14.381858       39.124137       17.729435
  H           16.538670       40.075124       17.142592
  H           16.727615       38.965359       15.772292
  H           16.728479       38.208111       18.741446
  H           18.092387       38.047881       17.622436
  H           16.525160       35.906339       18.027156
  H           16.960726       36.324116       16.341586
  O           34.240076       27.120926       17.827275
  S           35.447043       27.668688       18.399803
  O           35.664778       29.098255       18.507638
  C           35.706274       26.920731       19.996788
  C           37.126833       26.364390       19.947838
  C           37.324456       25.829798       18.529050
  C           36.860124       26.930984       17.600619
  H           35.574477       27.664811       20.787657
  H           34.978059       26.115060       20.118435
  H           37.275620       25.580904       20.698513
  H           37.851602       27.164000       20.144390
  H           36.703670       24.928741       18.390774
  H           38.361531       25.550649       18.337606
  H           36.571375       26.561663       16.611515
  H           37.626226       27.705832       17.496708
  O            6.493028       38.570022       27.258623
  S            6.034186       39.667863       26.440815
  O            5.389452       40.833744       27.013300
  C            7.380765       40.201557       25.402117
  C            6.822582       40.168899       23.981812
  C            5.907057       38.946203       23.913772
  C            5.008654       39.030483       25.128667
  H            7.713167       41.200477       25.699050
  H            8.200866       39.487905       25.513178
  H            7.624634       40.114191       23.238024
  H            6.239484       41.076991       23.785177
  H            6.520308       38.030532       23.957001
  H            5.331792       38.916683       22.987328
  H            4.596775       38.059976       25.422899
  H            4.194375       39.743631       24.965974
  O           17.838495       23.758631       28.828472
  S           17.862736       24.578732       27.640430
  O           18.050873       24.010443       26.319690
  C           16.403228       25.601816       27.628774
  C           16.920465       27.028047       27.460761
  C           18.213846       27.108645       28.272223
  C           19.034751       25.903182       27.868278
  H           15.736858       25.299057       26.815885
  H           15.896104       25.483689       28.589540
  H           16.183875       27.763388       27.801657
  H           17.135590       27.228773       26.404006
  H           17.971668       27.061013       29.347156
  H           18.751201       28.041220       28.094311
  H           19.771402       25.615590       28.625072
  H           19.536070       26.072876       26.910164
  O            4.649139       21.241396       21.762507
  S            4.463003       22.321288       22.702606
  O            3.811287       22.120557       23.982323
  C            6.035913       23.115474       22.971345
  C            5.785547       24.595065       22.692012
  C            4.806841       24.645575       21.518392
  C            3.684828       23.693038       21.870472
  H            6.380173       22.934248       23.993667
  H            6.753180       22.701945       22.258097
  H            6.717822       25.122160       22.462806
  H            5.333111       25.072890       23.569670
  H            5.320039       24.306919       20.602783
  H            4.437063       25.655756       21.337012
  H            3.142135       23.329735       20.992068
  H            2.983964       24.154723       22.573136
  O           31.534188       28.657263        1.882379
  S           32.077774       27.831795        2.934861
  O           31.892265       28.154696        4.336296
  C           31.565492       26.147632        2.655280
  C           32.857041       25.334158        2.663105
  C           33.910962       26.204783        1.978225
  C           33.814799       27.566487        2.631459
  H           30.866322       25.831689        3.434921
  H           31.080629       26.096400        1.677281
  H           32.729208       24.375766        2.148670
  H           33.165144       25.126291        3.695173
  H           33.676153       26.281149        0.903314
  H           34.912790       25.782796        2.069708
  H           34.204416       28.371143        1.999929
  H           34.326997       27.574842        3.598766
  O           28.614504       27.421677       17.014664
  S           28.146177       26.173546       17.569135
  O           27.566604       25.135045       16.739490
  C           29.451994       25.466582       18.555058
  C           28.819971       25.202627       19.919160
  C           27.866641       26.369654       20.178024
  C           27.035510       26.515039       18.921726
  H           29.828577       24.554078       18.083868
  H           30.255454       26.202894       18.635667
  H           29.580296       25.121282       20.703245
  H           28.254349       24.263012       19.896872
  H           28.454160       27.286384       20.353599
  H           27.243347       26.201658       21.057445
  H           26.611176       27.517181       18.804456
  H           26.235161       25.768942       18.892054
  O           22.114287       36.815576       10.240629
  S           23.056770       35.784371       10.605241
  O           22.625965       34.464679       11.024191
  C           24.247698       35.615012        9.289943
  C           25.608402       35.757936        9.966668
  C           25.433371       36.821702       11.050903
  C           24.190073       36.431459       11.820397
  H           24.126053       34.648104        8.793162
  H           24.083268       36.424521        8.574500
  H           26.385203       36.038888        9.247540
  H           25.901603       34.806798       10.427830
  H           25.292304       37.806234       10.574250
  H           26.306221       36.890294       11.701693
  H           23.727677       37.276140       12.340785
  H           24.405738       35.630518       12.534598
  O           14.339016       14.718219       18.398919
  S           14.643641       15.910249       19.154477
  O           13.644154       16.583800       19.960737
  C           16.080788       15.591738       20.159543
  C           17.057254       16.715342       19.822009
  C           16.900425       16.977967       18.323933
  C           15.412788       17.104714       18.076809
  H           15.805547       15.579429       21.218122
  H           16.491159       14.621132       19.870196
  H           18.086276       16.441305       20.077971
  H           16.798101       17.621162       20.383818
  H           17.307990       16.121860       17.760575
  H           17.440150       17.871219       18.006289
  H           15.133396       16.896693       17.039135
  H           15.049993       18.096207       18.365638
  O           29.932923       10.803697       32.361469
  S           31.051824       10.116886       31.760677
  O           32.306917        9.934082       32.463545
  C           30.489052        8.536446       31.158601
  C           30.912794        8.497154       29.692723
  C           30.722563        9.916862       29.157895
  C           31.387379       10.832908       30.162423
  H           30.935172        7.728525       31.745747
  H           29.400437        8.504978       31.248748
  H           30.322616        7.769801       29.125142
  H           31.969105        8.212173       29.613385
  H           29.644251       10.139827       29.095211
  H           31.144909       10.038091       28.159382
  H           30.999120       11.855779       30.129397
  H           32.473119       10.845013       30.024143
  O           35.623757       21.072259       36.989846
  S           35.145543       19.795581       36.514446
  O           35.143297       19.453592       35.105284
  C           35.975845       18.506064       37.422600
  C           34.856578       17.633642       37.984759
  C           33.728848       18.589567       38.374931
  C           33.519094       19.495574       37.181049
  H           36.647649       17.951421       36.761124
  H           36.547795       18.970965       38.229409
  H           35.200627       17.044569       38.841568
  H           34.499595       16.937159       37.216140
  H           34.041573       19.181567       39.251367
  H           32.815336       18.057016       38.643231
  H           33.049171       20.448087       37.445608
  H           32.929054       18.994679       36.407061
  O           22.261950        5.022539       28.728718
  S           20.970330        4.561870       29.180493
  O           19.785481        5.393173       29.092354
  C           20.631870        2.987312       28.416810
  C           20.301712        2.048448       29.574148
  C           21.232329        2.444812       30.720729
  C           21.119059        3.948512       30.848238
  H           19.806171        3.082704       27.705738
  H           21.535192        2.659218       27.896653
  H           20.436647        0.999574       29.289270
  H           19.257995        2.184019       29.883298
  H           22.266730        2.161778       30.463227
  H           20.972364        1.939787       31.652108
  H           21.990545        4.402694       31.330243
  H           20.209569        4.229194       31.388744
  O           32.796353       40.039780       25.921959
  S           31.367403       39.918613       25.754563
  O           30.432424       40.632044       26.602814
  C           30.967509       40.244768       24.048484
  C           30.156460       39.034443       23.593276
  C           30.785725       37.820419       24.277359
  C           30.925254       38.191208       25.737923
  H           30.407209       41.180467       23.964633
  H           31.902174       40.318856       23.487136
  H           30.166674       38.933326       22.502785
  H           29.112633       39.138059       23.914197
  H           31.778667       37.629555       23.836862
  H           30.185389       36.919206       24.145030
  H           31.695858       37.609868       26.253979
  H           29.970194       38.086746       26.262373
  O           20.211498       34.387111       38.318385
  S           20.281466       35.354298       39.388083
  O           19.764964       35.071313       40.713166
  C           21.965794       35.919648       39.530976
  C           21.880895       37.441646       39.452152
  C           20.785466       37.753200       38.431970
  C           19.597524       36.901147       38.823121
  H           22.401696       35.572272       40.472156
  H           22.533033       35.518510       38.687454
  H           22.840678       37.881192       39.160408
  H           21.602209       37.854573       40.429457
  H           21.137768       37.475079       37.424532
  H           20.532897       38.814322       38.413805
  H           18.911735       36.717057       37.990112
  H           19.051510       37.349148       39.659341
  O           26.520139        0.999612       16.696217
  S           27.129906        2.245754       17.096112
  O           26.663997        2.992814       18.248296
  C           28.888667        1.994872       17.240399
  C           29.516322        3.077198       16.366031
  C           28.604791        3.219097       15.146697
  C           27.197770        3.340841       15.690452
  H           29.195931        2.071303       18.287417
  H           29.124099        0.999788       16.854938
  H           30.539302        2.814141       16.076525
  H           29.552482        4.028235       16.911486
  H           28.693518        2.315939       14.519934
  H           28.875560        4.077994       14.531002
  H           26.432683        3.052276       14.962804
  H           27.002198        4.356206       16.049459
  O           25.984765       30.266689        1.855956
  S           26.434122       29.773389        3.136321
  O           26.611938       30.650806        4.277032
  C           25.394441       28.406333        3.612997
  C           26.358239       27.261296        3.912806
  C           27.483968       27.373972        2.884293
  C           27.924340       28.821664        2.905741
  H           24.785697       28.679723        4.479708
  H           24.748189       28.158164        2.767438
  H           25.855445       26.289984        3.855779
  H           26.770459       27.370637        4.923458
  H           27.092779       27.110138        1.887416
  H           28.310282       26.697140        3.106112
  H           28.418133       29.131204        1.979214
  H           28.581259       29.019508        3.758628
  O           27.572751       31.620096        2.551758
  S           26.805431       32.768317        2.130559
  O           25.900179       32.712945        0.999121
  C           25.929557       33.412993        3.542734
  C           26.307240       34.890724        3.602461
  C           27.778571       34.969423        3.194058
  C           27.901568       34.159217        1.921801
  H           24.853316       33.259947        3.421158
  H           26.282395       32.886092        4.432724
  H           26.143549       35.305258        4.602894
  H           25.697180       35.464458        2.893973
  H           28.400426       34.525386        3.989375
  H           28.109016       35.999151        3.050653
  H           28.919798       33.800505        1.741153
  H           27.552371       34.731621        1.056634
  O           11.664676        5.029902       31.238704
  S           10.909156        4.417139       32.305621
  O           11.375764        4.424750       33.678545
  C            9.243621        5.050005       32.255899
  C            8.350918        3.812783       32.208306
  C            9.080619        2.796663       31.329196
  C           10.501765        2.742927       31.846552
  H            9.050411        5.672837       33.134108
  H            9.131579        5.644508       31.345838
  H            7.358416        4.050749       31.811050
  H            8.222463        3.401826       33.217223
  H            9.069527        3.147021       30.283478
  H            8.603908        1.815766       31.355419
  H           11.214989        2.383430       31.098105
  H           10.568390        2.124885       32.747488
  O           11.974978       18.945509        5.781255
  S           11.746533       17.988441        4.724641
  O           11.632894       18.391092        3.336239
  C           12.968832       16.697783        4.855737
  C           12.169613       15.398031        4.898071
  C           10.914233       15.698408        5.717580
  C           10.339998       16.976775        5.146413
  H           13.655110       16.740407        4.005029
  H           13.521030       16.844203        5.787316
  H           12.753908       14.583406        5.339076
  H           11.883433       15.098452        3.882367
  H           11.196663       15.846721        6.773343
  H           10.194427       14.879588        5.678685
  H            9.701967       17.512478        5.856370
  H            9.783183       16.779588        4.224906
  O           15.976457       13.584257       16.475401
  S           16.787400       12.958002       15.458161
  O           16.408325       12.971884       14.058586
  C           18.456739       13.563349       15.612635
  C           19.324098       12.311615       15.716330
  C           18.523808       11.308588       16.547758
  C           17.137352       11.277773       15.941962
  H           18.715115       14.181996       14.748333
  H           18.521090       14.156868       16.527946
  H           20.293426       12.533584       16.175279
  H           19.508991       11.897546       14.717500
  H           18.474848       11.659802       17.592100
  H           18.984941       10.319931       16.551595
  H           16.372585       10.930872       16.644025
  H           17.117358       10.659978       15.038618
  O           22.794135       16.457935       28.874931
  S           21.423178       16.341063       28.437418
  O           21.049041       16.473794       27.042748
  C           20.753377       14.817215       29.074798
  C           19.477045       15.221436       29.807929
  C           19.780260       16.560485       30.480840
  C           20.403571       17.431973       29.412107
  H           20.562788       14.117342       28.256047
  H           21.480528       14.388943       29.769085
  H           19.177421       14.461857       30.537837
  H           18.655088       15.346624       29.092377
  H           20.495338       16.399089       31.304864
  H           18.884776       17.018132       30.903648
  H           21.018155       18.238590       29.824122
  H           19.637983       17.851093       28.751567
  O            5.239218       19.190737       18.690354
  S            4.220986       18.867016       17.719267
  O            3.974069       19.701542       16.559397
  C            4.465291       17.185181       17.181916
  C            3.118653       16.500203       17.399334
  C            2.550178       17.083143       18.693481
  C            2.676009       18.585675       18.564012
  H            4.781251       17.165869       16.134875
  H            5.236089       16.734319       17.811832
  H            3.228656       15.412277       17.461096
  H            2.442335       16.725596       16.565611
  H            3.148537       16.723519       19.547318
  H            1.516435       16.777344       18.860700
  H            2.687764       19.097784       19.531331
  H            1.875510       18.994207       17.939189
  O            4.779210       32.653939        1.841472
  S            4.429495       32.694801        3.241697
  O            5.197252       33.463573        4.202031
  C            2.709928       33.142146        3.383006
  C            2.085677       32.048658        4.245847
  C            2.767654       30.743202        3.835370
  C            4.253983       31.027519        3.849206
  H            2.614179       34.135462        3.830953
  H            2.273899       33.141956        2.380968
  H            1.000705       31.998621        4.105023
  H            2.280813       32.248388        5.306663
  H            2.442517       30.467930        2.818064
  H            2.507932       29.918849        4.501017
  H            4.825232       30.343157        3.214049
  H            4.649109       31.001474        4.869646
  O           30.075046       17.817912       32.840194
  S           28.965056       17.651581       31.931978
  O           28.954065       16.617771       30.915210
  C           27.463887       17.541705       32.886661
  C           26.541218       18.605694       32.298010
  C           27.436145       19.792901       31.941014
  C           28.599645       19.218125       31.162489
  H           27.043048       16.534727       32.813241
  H           27.704354       17.769761       33.927990
  H           25.756339       18.890885       33.006622
  H           26.056479       18.224047       31.390997
  H           27.796819       20.267680       32.868861
  H           26.901099       20.550727       31.366972
  H           29.488203       19.856741       31.189561
  H           28.317562       19.021101       30.123397
  O           13.531129       33.764269       37.520178
  S           13.014132       35.089473       37.767457
  O           11.977175       35.675101       36.940136
  C           12.520397       35.194766       39.476884
  C           13.248521       36.419277       40.024886
  C           14.625652       36.426546       39.360612
  C           14.375051       36.236143       37.880359
  H           11.432843       35.285959       39.550437
  H           12.853055       34.286090       39.984669
  H           13.327444       36.382329       41.116630
  H           12.704721       37.332980       39.755205
  H           15.223934       35.588598       39.755962
  H           15.172503       37.348700       39.562319
  H           15.242101       35.830487       37.349541
  H           14.060263       37.173911       37.411745
  O           19.703401       12.404459       12.017827
  S           18.966190       12.961427       10.908366
  O           19.326629       12.684300        9.531418
  C           17.236334       12.598920       11.138986
  C           16.531841       13.949368       11.039583
  C           17.458511       14.961918       11.713250
  C           18.831982       14.726537       11.123019
  H           16.894675       11.890862       10.378445
  H           17.108079       12.166767       12.134473
  H           15.547111       13.922966       11.518237
  H           16.389716       14.223608        9.987018
  H           17.474000       14.773178       12.799775
  H           17.123498       15.988707       11.559720
  H           19.640812       15.080371       11.770086
  H           18.919351       15.189833       10.135181
  O           39.478334        8.622139       27.002922
  S           38.463804        7.768669       26.431154
  O           37.271618        8.307190       25.805545
  C           39.248582        6.634006       25.302587
  C           38.796830        5.248258       25.755933
  C           38.750048        5.295910       27.283461
  C           37.978395        6.548633       27.637632
  H           38.949154        6.857031       24.274431
  H           40.330922        6.742709       25.407105
  H           39.477243        4.468563       25.397305
  H           37.795780        5.031176       25.363412
  H           39.778631        5.358909       27.676460
  H           38.287330        4.403295       27.706817
  H           38.202225        6.917547       28.643566
  H           36.900605        6.388178       27.534082
  O           38.368871        3.666295       38.237297
  S           37.720397        2.992171       39.337132
  O           38.465910        2.210973       40.304933
  C           36.703658        4.171887       40.204030
  C           35.315976        3.538033       40.253699
  C           35.128782        2.821353       38.916116
  C           36.381231        1.998369       38.705711
  H           37.113249        4.362776       41.200171
  H           36.686514        5.098306       39.624674
  H           34.538141        4.290831       40.420336
  H           35.263531        2.809686       41.072272
  H           35.026997        3.571030       38.113605
  H           34.231478        2.200992       38.906225
  H           36.564328        1.761605       37.652849
  H           36.346914        1.074546       39.291775
  O           34.811285        4.718273        7.963650
  S           34.640297        6.150884        8.018321
  O           33.372139        6.784311        7.712958
  C           35.209727        6.728921        9.605338
  C           36.221857        7.826388        9.287438
  C           36.977470        7.359153        8.043034
  C           35.919314        6.929555        7.050082
  H           34.366531        7.095187       10.198102
  H           35.691662        5.893860       10.119742
  H           36.900161        8.000999       10.129408
  H           35.701566        8.767457        9.070676
  H           37.619957        6.502915        8.308491
  H           37.619287        8.141777        7.636009
  H           36.296279        6.223267        6.303654
  H           35.476666        7.796031        6.548703
  O           22.353221       18.554760       17.655423
  S           23.500136       19.425136       17.547570
  O           24.267913       19.534139       16.322279
  C           23.023878       21.057993       18.080446
  C           24.041639       21.437348       19.152897
  C           24.332171       20.155685       19.934391
  C           24.616501       19.090905       18.897280
  H           23.031412       21.748711       17.232300
  H           22.018087       20.998938       18.503643
  H           23.658904       22.229548       19.805149
  H           24.964786       21.800440       18.684640
  H           23.442896       19.882001       20.526579
  H           25.166535       20.278492       20.626384
  H           24.447904       18.075860       19.270588
  H           25.638075       19.178945       18.514217
  O            6.490126       34.091876       12.488989
  S            6.574018       32.863594       13.243234
  O            6.631434       31.567735       12.595041
  C            7.929026       32.996931       14.393528
  C            7.325649       32.667620       15.756389
  C            5.924185       33.278925       15.758809
  C            5.275209       32.837927       14.464764
  H            8.731261       32.308376       14.112795
  H            8.296320       34.025888       14.370242
  H            7.939942       33.063716       16.572018
  H            7.253462       31.580479       15.883721
  H            6.007616       34.378305       15.787116
  H            5.343475       32.967872       16.628362
  H            4.461084       33.497987       14.149135
  H            4.908956       31.809191       14.540001
  O           38.153132       25.488124       30.476800
  S           38.497837       26.387688       31.552237
  O           38.196547       26.079244       32.936717
  C           40.226218       26.800429       31.413160
  C           40.270018       28.326192       31.407750
  C           39.046970       28.782923       30.611916
  C           37.871864       28.014602       31.176726
  H           40.785630       26.367933       32.247729
  H           40.597994       26.398270       30.467512
  H           41.200648       28.698038       30.965984
  H           40.205546       28.708608       32.433860
  H           39.190818       28.530029       29.548078
  H           38.894356       29.861037       30.678842
  H           37.037201       27.933627       30.473248
  H           37.523955       28.461988       32.113158
  O           26.280238        3.363913       24.682758
  S           25.942283        3.706669       26.043972
  O           25.599381        5.061289       26.431428
  C           24.661279        2.601450       26.604794
  C           25.195214        2.002520       27.903291
  C           26.695436        1.797742       27.690685
  C           27.219071        3.103422       27.132827
  H           23.726284        3.150361       26.749643
  H           24.524179        1.825788       25.847330
  H           24.690227        1.061772       28.147179
  H           25.032825        2.699656       28.734514
  H           26.851284        0.983574       26.963195
  H           27.205465        1.519602       28.614052
  H           28.152631        2.984721       26.573831
  H           27.355802        3.843214       27.927882
  O           18.895928       31.727654       40.170927
  S           18.400467       31.217757       38.914295
  O           19.292838       30.767597       37.863710
  C           17.210592       29.934736       39.253491
  C           15.957865       30.342255       38.482449
  C           15.871117       31.865100       38.588356
  C           17.244236       32.386805       38.224254
  H           17.601547       28.964007       38.935155
  H           17.017788       29.923942       40.329089
  H           15.063239       29.858040       38.888257
  H           16.052427       30.051130       37.429071
  H           15.621365       32.143293       39.625965
  H           15.097296       32.277114       37.939091
  H           17.443399       33.383611       38.630224
  H           17.386084       32.394585       37.138935
  O           28.004964       35.889671        5.669186
  S           28.392497       35.095986        6.811325
  O           28.823754       35.702184        8.056010
  C           27.091932       33.926905        7.155968
  C           27.780900       32.565165        7.185744
  C           28.849586       32.606401        6.093037
  C           29.611020       33.897158        6.303671
  H           26.606296       34.171864        8.104995
  H           26.364541       33.975968        6.341907
  H           27.066366       31.751716        7.020689
  H           28.257192       32.405138        8.160853
  H           28.358962       32.611075        5.105279
  H           29.508496       31.737827        6.131978
  H           30.115743       34.247492        5.397790
  H           30.337593       33.796166        7.116070
  O            8.814376       37.708496       24.374748
  S            8.433629       36.559251       23.588067
  O            7.643163       35.477575       24.142902
  C            7.660807       37.131302       22.087233
  C            8.428815       36.446083       20.960051
  C            9.891867       36.412276       21.402926
  C            9.886755       35.871724       22.816425
  H            6.597975       36.872676       22.087988
  H            7.779975       38.216286       22.034243
  H            8.306780       36.979236       20.011180
  H            8.061851       35.421506       20.822652
  H           10.299215       37.437105       21.389099
  H           10.506352       35.802141       20.739418
  H           10.776006       36.159036       23.386324
  H            9.781734       34.782201       22.819622
  O           23.874663       23.342710       27.767435
  S           23.269672       22.769332       28.946342
  O           22.668635       21.449733       28.935610
  C           24.441633       22.861656       30.286111
  C           23.695721       23.564506       31.417269
  C           22.823263       24.629764       30.752556
  C           22.097277       23.929134       29.624611
  H           24.776076       21.858093       30.564516
  H           25.293905       23.459205       29.953294
  H           24.389793       24.005378       32.140730
  H           23.059485       22.848054       31.951308
  H           23.468610       25.428971       30.351064
  H           22.127958       25.087660       31.457526
  H           21.764105       24.615834       28.840048
  H           21.243715       23.357495       30.002450
  O           25.589287       21.045568       38.646099
  S           25.808123       21.556267       37.313471
  O           26.976875       21.193903       36.535389
  C           24.346194       21.247544       36.341641
  C           23.961366       22.606260       35.762245
  C           24.259335       23.633286       36.855054
  C           25.662084       23.333289       37.337232
  H           24.558492       20.505985       35.566064
  H           23.565180       20.875113       37.009108
  H           22.908075       22.629663       35.463027
  H           24.570242       22.824137       34.876187
  H           23.538218       23.505597       37.679727
  H           24.168035       24.657323       36.490207
  H           25.853877       23.704059       38.349085
  H           26.409258       23.738184       36.647384
  O            5.139738       28.532967       28.097334
  S            5.393709       28.865792       29.479118
  O            6.739182       29.035786       29.992447
  C            4.425908       30.301345       29.902850
  C            3.637964       29.895284       31.145492
  C            3.250832       28.430129       30.942393
  C            4.519777       27.717794       30.526993
  H            5.081362       31.158223       30.083518
  H            3.752438       30.516845       29.069665
  H            2.756310       30.529867       31.285102
  H            4.267994       29.989350       32.038529
  H            2.496384       28.361652       30.140820
  H            2.818342       27.992413       31.843202
  H            4.328313       26.791019       29.976965
  H            5.154333       27.508705       31.394010
  O           28.593502       13.327821       27.733933
  S           28.004684       13.508007       26.428014
  O           28.369051       12.672429       25.300297
  C           26.230744       13.506175       26.601607
  C           25.765708       14.796198       25.931173
  C           26.820256       15.851816       26.264937
  C           28.157940       15.218711       25.948738
  H           25.806782       12.613552       26.132588
  H           25.992296       13.515384       27.668030
  H           24.771882       15.093685       26.282332
  H           25.713763       14.658350       24.844158
  H           26.760318       16.098272       27.338281
  H           26.667478       16.774723       25.703688
  H           28.987702       15.679865       26.493653
  H           28.360989       15.246510       24.873518
  O           28.937868       26.644258       32.484908
  S           27.877911       25.714106       32.175217
  O           27.388482       25.531440       30.822519
  C           28.303235       24.123352       32.857565
  C           27.101499       23.723561       33.709561
  C           26.598456       25.010575       34.364038
  C           26.490764       26.029588       33.250388
  H           28.503185       23.409262       32.053453
  H           29.194899       24.245380       33.477440
  H           27.373801       22.970695       34.456919
  H           26.313269       23.300918       33.074449
  H           27.331616       25.345773       35.116712
  H           25.644145       24.865364       34.872276
  H           26.533173       27.062099       33.611251
  H           25.576566       25.878966       32.667589
  O           21.807324       15.175446       10.362666
  S           22.537210       15.039697        9.124346
  O           23.244206       16.154566        8.524408
  C           23.653460       13.658133        9.273564
  C           23.344289       12.767516        8.073100
  C           21.830012       12.835926        7.872881
  C           21.472865       14.306339        7.895909
  H           24.689434       14.009165        9.279372
  H           23.430893       13.139207       10.209182
  H           23.683104       11.739481        8.239980
  H           23.851653       13.150599        7.179160
  H           21.329811       12.309973        8.703285
  H           21.518214       12.359098        6.942549
  H           20.426493       14.487156        8.161448
  H           21.697520       14.779923        6.934999
  O           15.986609       30.698761       21.267478
  S           16.922249       30.797063       22.362702
  O           16.482421       30.893416       23.741095
  C           18.100612       29.467170       22.221825
  C           19.468154       30.144419       22.254419
  C           19.312182       31.452909       21.478967
  C           18.071637       32.119801       22.032595
  H           17.965702       28.755295       23.041297
  H           17.937964       28.967287       21.263773
  H           20.241619       29.505154       21.815565
  H           19.756120       30.362260       23.290238
  H           19.176527       31.226429       20.408124
  H           20.190989       32.092255       21.574020
  H           17.621588       32.831440       21.333220
  H           18.285587       32.619995       22.982401
  O           33.651969       22.233005       14.055333
  S           35.075418       22.259795       14.295489
  O           35.823179       23.501504       14.336863
  C           35.417559       21.327468       15.775592
  C           36.476679       20.307663       15.365514
  C           36.115601       19.868368       13.946203
  C           35.880342       21.141865       13.163221
  H           35.763616       21.994819       16.570191
  H           34.496317       20.827267       16.084317
  H           36.502700       19.458236       16.056380
  H           37.469244       20.774691       15.365192
  H           35.193109       19.264641       13.976574
  H           36.898054       19.256027       13.495753
  H           35.246827       20.990958       12.283457
  H           36.828535       21.598284       12.862037
  O           41.012439       15.820605       20.300000
  S           40.253623       15.435182       21.466296
  O           40.297618       14.087286       21.999158
  C           40.606649       16.588981       22.778211
  C           39.241959       17.092015       23.241329
  C           38.384859       17.214398       21.981090
  C           38.549357       15.906961       21.236946
  H           41.163725       16.092100       23.577759
  H           41.200972       17.406538       22.362782
  H           39.325771       18.049322       23.766723
  H           38.786415       16.367594       23.927619
  H           38.758884       18.050995       21.367403
  H           37.338845       17.416810       22.215577
  H           38.333266       15.994597       20.167496
  H           37.924657       15.123412       21.677289
  O           37.589421       24.882612       26.141384
  S           36.281459       25.485259       26.038175
  O           35.079549       24.784596       26.447057
  C           36.326226       27.076321       26.840370
  C           35.805855       28.061061       25.796626
  C           36.354317       27.583116       24.451800
  C           36.051243       26.102125       24.381015
  H           35.711234       27.060161       27.744817
  H           37.364261       27.298492       27.099837
  H           36.122396       29.085395       26.020325
  H           34.709281       28.042419       25.774750
  H           37.444160       27.750071       24.424095
  H           35.914225       28.125914       23.614070
  H           36.711545       25.563857       23.693724
  H           35.007019       25.928031       24.102831
  O           24.554897       13.149317       32.849812
  S           23.721741       13.618541       33.931608
  O           23.982359       13.259170       35.312054
  C           23.581823       15.391329       33.810598
  C           22.081313       15.671274       33.810861
  C           21.438884       14.541911       33.004867
  C           22.016709       13.256255       33.555690
  H           24.097447       15.868488       34.649020
  H           24.034978       15.705717       32.867194
  H           21.857477       16.652702       33.379357
  H           21.695483       15.656586       34.837613
  H           21.709000       14.655478       31.941599
  H           20.350276       14.557679       33.074031
  H           21.965896       12.426242       32.843935
  H           21.522560       12.972551       34.490264
  O           31.099852        9.372007       18.565135
  S           30.933404       10.625137       19.262674
  O           30.576548       10.679859       20.667081
  C           32.388111       11.619716       18.995014
  C           31.865379       12.950488       18.460508
  C           30.684669       12.608176       17.551361
  C           29.809913       11.660914       18.343634
  H           32.944814       11.732984       19.929761
  H           33.010758       11.119671       18.249047
  H           32.644798       13.498464       17.920390
  H           31.521042       13.580496       19.289859
  H           31.059356       12.109198       16.641949
  H           30.136764       13.498440       17.239386
  H           29.171701       11.037906       17.709090
  H           29.193773       12.206447       19.065343
  O           15.444039       26.741222       13.849520
  S           14.230934       27.325742       13.328645
  O           12.960310       26.628867       13.379451
  C           14.031867       28.946961       14.042104
  C           13.856325       29.885194       12.850969
  C           14.787855       29.361456       11.757465
  C           14.518098       27.875752       11.656901
  H           13.170354       28.959298       14.716005
  H           14.941759       29.189810       14.596470
  H           14.091450       30.920649       13.119389
  H           12.818609       29.854269       12.496725
  H           15.834549       29.538591       12.056553
  H           14.625146       29.866890       10.804489
  H           15.355539       27.318284       11.225598
  H           13.608107       27.680153       11.080917
  O            5.494718       31.930144       20.886033
  S            6.091766       33.239879       20.998854
  O            7.434316       33.429246       21.513053
  C            5.952672       34.063110       19.424070
  C            5.280138       35.398106       19.732910
  C            4.250593       35.111574       20.826407
  C            4.979691       34.314697       21.886409
  H            6.942070       34.186296       18.974162
  H            5.321573       33.451932       18.774166
  H            4.811878       35.826056       18.840110
  H            6.021413       36.116453       20.104110
  H            3.426263       34.514578       20.401583
  H            3.820810       36.027641       21.234092
  H            4.306868       33.714985       22.507500
  H            5.584951       34.968656       22.522097
  O           16.921907       21.921124       32.407850
  S           17.733590       22.972258       31.841380
  O           18.580397       22.749202       30.685584
  C           16.693997       24.387085       31.533954
  C           17.386219       25.548715       32.242011
  C           17.966071       24.972956       33.534324
  C           18.710191       23.717518       33.133872
  H           16.591697       24.553230       30.457650
  H           15.713527       24.192402       31.975517
  H           16.687697       26.367932       32.443132
  H           18.197778       25.941160       31.616984
  H           17.141354       24.723059       34.222651
  H           18.618441       25.684287       34.042774
  H           18.827712       23.009296       33.960135
  H           19.690905       23.960042       32.712586
  O           20.898630        8.751496       16.139119
  S           20.296341        7.509830       15.714723
  O           21.046358        6.501085       14.991805
  C           19.512048        6.750314       17.123631
  C           18.075111        6.485362       16.682144
  C           17.672260        7.676178       15.811817
  C           18.796996        7.864315       14.816944
  H           20.041010        5.834020       17.401307
  H           19.538232        7.461301       17.953096
  H           17.407170        6.370187       17.542429
  H           18.026870        5.563304       16.089875
  H           17.572086        8.572489       16.446633
  H           16.715370        7.513919       15.313687
  H           18.842901        8.880162       14.411917
  H           18.720929        7.142716       13.997427
  O           33.008765       30.102953        2.640968
  S           33.049489       31.186420        3.594404
  O           33.689351       31.046219        4.888089
  C           33.698800       32.632984        2.780249
  C           32.663975       33.726711        3.030842
  C           31.298123       33.043527        2.956615
  C           31.398419       31.815446        3.835226
  H           34.682325       32.885260        3.187109
  H           33.782212       32.415057        1.712658
  H           32.750984       34.535292        2.297270
  H           32.806126       34.158267        4.029267
  H           31.095570       32.749182        1.913191
  H           30.491804       33.704719        3.277198
  H           30.669060       31.042530        3.573049
  H           31.293412       32.079447        4.892287
  O           39.055208       36.525506       33.385075
  S           38.218065       35.362174       33.559576
  O           37.653665       35.009477       34.847891
  C           36.910353       35.419018       32.349759
  C           36.977826       34.074695       31.629937
  C           38.463084       33.732590       31.508400
  C           39.051587       33.936165       32.887683
  H           35.947585       35.582897       32.842428
  H           37.119786       36.239755       31.659304
  H           36.493052       34.121496       30.648966
  H           36.469692       33.304061       32.222578
  H           38.936322       34.420324       30.787658
  H           38.620557       32.714937       31.148282
  H           40.130985       34.116820       32.868611
  H           38.830859       33.084054       33.538287
  O            6.676035       11.237375       14.624773
  S            6.669942       10.465047       15.844639
  O            6.830699       11.084718       17.145740
  C            5.206141        9.448227       15.863708
  C            5.713300        8.028038       16.099830
  C            7.024289        7.910844       15.321774
  C            7.841071        9.128595       15.696143
  H            4.522923        9.785319       16.648616
  H            4.721325        9.529818       14.887748
  H            4.981418        7.282254       15.771721
  H            5.903673        7.868724       17.168323
  H            6.806620        7.916556       14.240577
  H            7.553468        6.984245       15.548672
  H            8.595834        9.383372       14.945463
  H            8.319921        8.995391       16.671366
  O            0.999031       25.730334       32.055694
  S            1.790992       25.063371       33.061953
  O            1.681268       25.395547       34.469192
  C            1.591660       23.303171       32.864563
  C            3.011453       22.753366       32.755923
  C            3.805427       23.784430       31.953232
  C            3.509267       25.125289       32.589303
  H            1.045200       22.887612       33.716145
  H            1.034657       23.124283       31.941554
  H            3.023796       21.770151       32.273599
  H            3.451465       22.646207       33.755026
  H            3.458439       23.775116       30.906374
  H            4.874261       23.566057       31.950329
  H            3.672668       25.966177       31.907901
  H            4.100270       25.266977       33.499654
  O           22.356109       34.335308       32.899198
  S           21.034100       34.866810       33.132428
  O           20.277670       35.528061       32.086837
  C           20.027567       33.584807       33.853787
  C           19.454606       34.200526       35.127563
  C           20.564587       35.074004       35.713034
  C           21.073788       35.923115       34.568515
  H           19.248847       33.276010       33.150410
  H           20.673918       32.735893       34.089956
  H           19.132909       33.428922       35.835122
  H           18.584338       34.823303       34.886558
  H           21.372026       34.427281       36.095386
  H           20.208874       35.686187       36.542974
  H           22.093484       36.287497       34.728347
  H           20.404678       36.768363       34.378914
  O           18.516253       10.625986        6.313035
  S           18.474701        9.471888        7.179598
  O           19.659418        8.973808        7.851210
  C           17.184137        9.714904        8.384748
  C           16.305519        8.471081        8.280658
  C           16.257028        8.108929        6.795971
  C           17.692574        8.121263        6.317165
  H           17.617371        9.839936        9.381330
  H           16.622873       10.610674        8.107660
  H           15.303920        8.654001        8.684193
  H           16.753263        7.645058        8.846794
  H           15.669298        8.869839        6.255611
  H           15.782887        7.141252        6.625995
  H           17.780785        8.275005        5.237034
  H           18.209540        7.199710        6.602798
  O           13.544620       23.811497       20.419276
  S           14.441228       23.445091       21.489996
  O           15.530001       24.306970       21.907654
  C           13.468651       23.006478       22.917830
  C           13.960804       21.619124       23.321481
  C           14.247600       20.874587       22.017175
  C           15.087816       21.812802       21.178134
  H           13.606989       23.747424       23.710523
  H           12.418274       22.973521       22.618126
  H           13.218543       21.093213       23.931370
  H           14.883751       21.702766       23.908400
  H           13.294754       20.657289       21.506033
  H           14.754799       19.924555       22.191211
  H           15.031349       21.593835       20.107170
  H           16.132916       21.800762       21.503284
  O           39.137114        9.232031       14.377628
  S           38.835690        7.849690       14.665512
  O           37.971659        7.058826       13.810710
  C           40.369311        6.974485       14.908459
  C           40.223789        6.289015       16.264503
  C           39.458300        7.268280       17.154933
  C           38.258953        7.715245       16.347475
  H           40.530353        6.262403       14.093901
  H           41.180379        7.706573       14.928851
  H           41.200000        6.034581       16.690855
  H           39.648404        5.361191       16.157850
  H           40.105016        8.131533       17.385048
  H           39.161491        6.814548       18.101576
  H           37.858310        8.679255       16.676519
  H           37.467585        6.959349       16.368856
  O           10.482399       13.096149        4.146630
  S           10.967523       12.825541        2.813953
  O           11.199959       13.885594        1.852205
  C           12.436411       11.823637        2.938677
  C           12.166669       10.612624        2.049528
  C           10.686147       10.275662        2.229278
  C            9.938417       11.580303        2.058953
  H           13.311243       12.394898        2.614902
  H           12.554953       11.520345        3.981826
  H           12.808472        9.767253        2.319599
  H           12.362201       10.864758        1.000006
  H           10.525568        9.874934        3.244183
  H           10.348815        9.520917        1.517472
  H            8.955476       11.574743        2.540508
  H            9.829804       11.835101        1.000000
  O            6.477345        9.106094       10.001646
  S            5.396224       10.062046        9.957667
  O            5.102973       10.940372       11.073573
  C            5.566251       11.041441        8.478182
  C            4.217817       10.929417        7.771728
  C            3.740878        9.493679        7.993058
  C            3.896714        9.226751        9.474498
  H            5.819835       12.073716        8.736259
  H            6.360979       10.603972        7.868896
  H            4.303816       11.166143        6.705865
  H            3.499778       11.628834        8.217302
  H            4.378914        8.805676        7.413435
  H            2.711315        9.348890        7.662700
  H            3.977924        8.160844        9.709758
  H            3.071576        9.668698       10.041887
  O           18.246803       36.942471       29.989743
  S           17.573486       37.959233       29.216801
  O           18.267371       38.748578       28.217723
  C           16.119050       37.239565       28.479444
  C           14.969986       38.154065       28.895665
  C           15.274345       38.592520       30.328467
  C           16.713290       39.061154       30.323839
  H           16.236201       37.181311       27.393450
  H           15.986793       36.237141       28.893996
  H           14.005117       37.640393       28.827329
  H           14.932612       39.033751       28.241404
  H           15.157648       37.729269       31.004914
  H           14.595694       39.375479       30.669800
  H           17.177657       39.022925       31.314294
  H           16.795030       40.073658       29.916096
  O           22.894197        6.872459       17.420280
  S           24.161733        6.656303       18.076961
  O           25.316172        7.492346       17.810503
  C           23.884513        6.594467       19.836598
  C           24.515166        5.280852       20.291125
  C           24.234490        4.268665       19.180045
  C           24.634090        4.947274       17.887756
  H           24.335721        7.465605       20.320364
  H           22.805910        6.588160       20.012032
  H           24.103770        4.950706       21.250946
  H           25.598439        5.404743       20.411414
  H           23.157351        4.031962       19.168087
  H           24.777678        3.334634       19.330488
  H           24.134696        4.523118       17.010945
  H           25.719074        4.915196       17.746758
  O            5.716342       11.513715       19.055245
  S            4.856325       12.217844       19.976750
  O            5.383744       12.946836       21.113896
  C            3.787118       13.295437       19.042625
  C            2.373222       12.939590       19.494481
  C            2.362680       11.424751       19.701724
  C            3.578994       11.111399       20.545876
  H            4.039656       14.341221       19.240258
  H            3.922483       13.073884       17.981121
  H            1.627000       13.250888       18.755735
  H            2.142611       13.442504       20.441685
  H            2.440139       10.923704       18.722259
  H            1.442184       11.083089       20.177175
  H            3.916431       10.075523       20.440063
  H            3.392025       11.333271       21.601298
  O           28.791198       19.454102       27.895026
  S           27.715509       20.265618       28.413617
  O           27.911467       21.184264       29.518329
  C           26.963154       21.142881       27.056645
  C           25.475338       20.814549       27.148860
  C           25.389937       19.352592       27.588391
  C           26.317392       19.220145       28.776871
  H           27.162079       22.214936       27.143980
  H           27.387968       20.759990       26.125448
  H           24.969561       20.978105       26.191290
  H           24.994320       21.453527       27.899611
  H           25.733007       18.704992       26.764184
  H           24.369278       19.059176       27.837915
  H           26.659163       18.193009       28.938996
  H           25.844752       19.600587       29.687901
  O           31.420263       16.441960        5.264037
  S           30.533850       16.924062        4.231348
  O           29.278067       17.578981        4.542459
  C           31.468060       17.959261        3.121116
  C           31.213473       17.380994        1.731623
  C           31.161347       15.862977        1.906860
  C           30.223313       15.609626        3.067078
  H           31.139995       18.999043        3.209025
  H           32.524854       17.878472        3.387308
  H           31.995425       17.678892        1.025006
  H           30.252083       17.740247        1.344368
  H           32.171411       15.490155        2.145970
  H           30.827366       15.357471        0.999655
  H           30.394256       14.642662        3.550667
  H           29.178215       15.684994        2.750549
  O            4.542487       18.517827       30.161449
  S            4.427677       17.461773       31.139287
  O            3.141689       17.015679       31.639222
  C            5.345132       16.048856       30.557101
  C            6.293996       15.694627       31.699064
  C            6.746967       17.024554       32.302315
  C            5.486302       17.831390       32.525792
  H            4.661921       15.230921       30.310716
  H            5.903999       16.348129       29.666987
  H            7.144057       15.102514       31.343680
  H            5.765523       15.106373       32.459309
  H            7.407636       17.541713       31.586449
  H            7.306334       16.884526       33.228382
  H            5.671674       18.909280       32.569249
  H            4.969479       17.508254       33.434954
  O            6.757791       41.199210       36.336468
  S            6.075719       40.499641       35.273462
  O            5.319356       41.201719       34.254786
  C            7.236427       39.403253       34.481193
  C            6.569613       38.030563       34.512526
  C            5.839526       37.944045       35.853156
  C            5.045601       39.226294       35.978547
  H            7.443929       39.745382       33.463160
  H            8.158193       39.400299       35.068166
  H            7.304533       37.226261       34.400764
  H            5.845806       37.944498       33.692771
  H            6.581043       37.874718       36.666634
  H            5.197633       37.064034       35.913594
  H            4.806158       39.480153       37.016007
  H            4.125233       39.177422       35.388096
  O           26.000041        9.280687       39.872700
  S           26.974491        8.308897       39.436039
  O           26.697507        6.885586       39.448983
  C           27.549251        8.772888       37.813892
  C           29.070258        8.823146       37.931843
  C           29.369652        9.391701       39.319253
  C           28.514169        8.602325       40.286328
  H           27.210196        8.045007       37.071107
  H           27.145517        9.760713       37.578520
  H           29.512741        9.437132       37.140180
  H           29.488107        7.812196       37.850093
  H           29.086781       10.457433       39.343732
  H           30.429344        9.323986       39.569385
  H           28.321218        9.138428       41.220921
  H           28.964825        7.629032       40.504755
  O            2.405773       26.121152       39.216311
  S            3.587405       25.504650       38.661087
  O            4.620642       24.931429       39.501645
  C            3.080791       24.292114       37.456887
  C            3.841841       24.655297       36.184565
  C            3.882716       26.182968       36.136097
  C            4.346114       26.630855       37.505352
  H            3.316437       23.285186       37.813352
  H            2.003004       24.390915       37.305851
  H            3.358109       24.236290       35.295781
  H            4.864331       24.260829       36.231567
  H            2.868975       26.567083       35.933158
  H            4.540580       26.549974       35.347033
  H            4.047416       27.656860       37.742402
  H            5.431415       26.529438       37.605039
  O           19.655887       34.797575        8.283617
  S           20.096425       33.557347        7.690020
  O           19.382954       32.311967        7.896631
  C           20.318847       33.814624        5.940352
  C           21.741787       33.345532        5.648643
  C           22.582659       33.765810        6.854504
  C           21.818663       33.303737        8.076387
  H           19.568284       33.251745        5.377927
  H           20.213073       34.883004        5.736453
  H           22.123763       33.780829        4.719067
  H           21.764963       32.253634        5.546071
  H           22.683519       34.864070        6.861814
  H           23.586810       33.340741        6.821403
  H           22.078878       33.864581        8.979627
  H           21.966896       32.233295        8.250403
  O            7.896914       32.992604       32.412771
  S            6.525299       32.689139       32.746211
  O            5.804519       31.601670       32.113291
  C            6.397542       32.516950       34.515682
  C            5.279038       33.470781       34.926846
  C            5.420756       34.701941       34.031322
  C            5.549849       34.176343       32.618070
  H            6.180138       31.477718       34.778801
  H            7.349354       32.821675       34.957719
  H            5.347426       33.733668       35.987842
  H            4.302195       33.001766       34.756254
  H            6.331398       35.255174       34.316041
  H            4.573932       35.382049       34.133510
  H            6.044044       34.882727       31.943614
  H            4.572067       33.899392       32.211448
  O            9.741804       15.265744       13.067501
  S           11.106881       14.838380       12.871222
  O           11.729622       14.837266       11.561684
  C           12.149007       15.732161       14.007942
  C           12.932282       14.656973       14.756508
  C           11.962869       13.492946       14.964065
  C           11.329331       13.232866       13.614552
  H           12.799749       16.420810       13.461319
  H           11.506343       16.291320       14.692430
  H           13.319381       15.034319       15.709012
  H           13.784996       14.322911       14.152702
  H           11.192074       13.788332       15.695517
  H           12.465563       12.605843       15.351940
  H           10.362512       12.724940       13.687851
  H           12.001212       12.657499       12.969859
  O           37.505829       29.452372       37.060331
  S           38.100003       30.578335       36.379330
  O           38.005116       31.927840       36.901376
  C           39.811183       30.202784       36.050962
  C           39.986291       30.430938       34.551902
  C           38.693400       29.946313       33.895114
  C           37.564932       30.581395       34.678333
  H           40.460551       30.846240       36.651616
  H           39.985665       29.154807       36.306891
  H           40.860277       29.895961       34.165316
  H           40.125263       31.499611       34.347145
  H           38.637489       28.847421       33.970690
  H           38.648436       30.208722       32.837182
  H           36.621975       30.032811       34.588956
  H           37.416323       31.623346       34.377747
  O            3.359350       12.158326       23.746821
  S            2.791249       12.635167       24.985564
  O            1.431580       13.132927       25.064529
  C            3.024042       11.384270       26.233788
  C            3.715313       12.102086       27.389983
  C            4.685479       13.097059       26.752326
  C            3.888020       13.843288       25.704756
  H            2.060001       10.955759       26.522758
  H            3.668804       10.605079       25.819853
  H            4.235163       11.395592       28.045819
  H            2.976166       12.643453       27.993210
  H            5.513137       12.543831       26.277648
  H            5.119096       13.775150       27.488715
  H            4.515871       14.281157       24.922341
  H            3.270809       14.622643       26.162747
  O            7.101519       26.820157       35.888321
  S            7.620238       27.312092       34.633917
  O            7.159385       26.797992       33.358764
  C            7.487649       29.089543       34.624441
  C            8.892764       29.589939       34.300162
  C            9.856104       28.644673       35.018666
  C            9.401710       27.243654       34.671000
  H            6.747854       29.408652       33.884595
  H            7.180783       29.414088       35.621789
  H            9.031658       30.627862       34.620981
  H            9.069084       29.543146       33.218486
  H            9.782527       28.809378       36.106718
  H           10.892910       28.817168       34.726469
  H            9.725394       26.496318       35.402312
  H            9.744893       26.956241       33.672141
  O           28.873224       15.930592       22.530035
  S           29.131043       14.560406       22.905162
  O           28.073961       13.677137       23.358057
  C           30.020196       13.768021       21.579066
  C           31.263249       13.173147       22.235453
  C           31.704621       14.179682       23.298411
  C           30.461525       14.519700       24.091695
  H           29.392144       13.008222       21.104982
  H           30.295501       14.532481       20.848306
  H           32.054385       12.989344       21.500729
  H           31.016043       12.217281       22.713480
  H           32.098047       15.082710       22.802270
  H           32.494526       13.781087       23.936590
  H           30.530626       15.486976       24.599340
  H           30.234128       13.735226       24.820386
  O           30.941165        7.597150       27.021445
  S           31.832238        6.617440       26.446329
  O           31.482425        5.212142       26.372389
  C           32.321898        7.178914       24.827076
  C           33.847914        7.147890       24.841657
  C           34.267917        7.591671       26.243247
  C           33.438099        6.770548       27.206242
  H           31.896691        6.528046       24.057615
  H           31.955851        8.200063       24.694922
  H           34.268619        7.800181       24.068983
  H           34.205817        6.127790       24.655640
  H           34.043593        8.664415       26.366930
  H           35.336829        7.454649       26.412813
  H           33.335838        7.240608       28.189444
  H           33.850541        5.762976       27.319338
  O           30.769466       23.182049       39.945137
  S           30.339334       23.992504       38.830350
  O           30.905882       23.836385       37.504699
  C           28.562937       23.901160       38.716027
  C           28.090884       25.352732       38.713945
  C           29.011921       26.099776       39.679043
  C           30.422813       25.712892       39.291865
  H           28.270460       23.363914       37.809206
  H           28.191003       23.373500       39.597752
  H           27.040941       25.432300       39.015257
  H           28.187920       25.779037       37.707889
  H           28.797778       25.774103       40.710779
  H           28.862512       27.179487       39.634302
  H           31.139529       25.839466       40.109421
  H           30.758064       26.276924       38.415752
  O           18.098394       17.775797        8.941215
  S           18.954962       18.009173       10.079823
  O           18.986782       17.105945       11.213783
  C           20.619093       18.262853        9.493893
  C           21.056589       19.590871       10.106156
  C           19.822375       20.493205       10.088595
  C           18.696193       19.669955       10.675257
  H           21.257936       17.429399        9.800053
  H           20.590488       18.329067        8.403482
  H           21.888220       20.033953        9.547972
  H           21.386417       19.438105       11.141132
  H           19.589017       20.769031        9.046547
  H           19.982016       21.415986       10.648140
  H           17.706094       20.020485       10.367146
  H           18.756046       19.645196       11.767917
  O            9.085398       20.233924       37.665909
  S            9.576921       20.726801       36.400967
  O           10.547448       19.989634       35.615242
  C            8.180538       21.128882       35.368763
  C            8.414868       22.571865       34.929685
  C            9.030994       23.286664       36.132703
  C           10.159209       22.399001       36.611646
  H            8.124928       20.437171       34.523221
  H            7.274491       21.049969       35.974612
  H            7.482220       23.049399       34.610894
  H            9.115494       22.599948       34.086101
  H            8.268270       23.391768       36.922389
  H            9.384372       24.286759       35.877685
  H           10.418807       22.567977       37.661483
  H           11.048910       22.523205       35.986262
  O           19.281441       22.882887       19.089616
  S           18.499102       23.720472       18.211551
  O           18.624122       23.647086       16.768747
  C           16.780375       23.554620       18.653673
  C           16.289697       24.982324       18.879055
  C           17.445485       25.727669       19.547198
  C           18.673542       25.421418       18.717568
  H           16.233197       23.044326       17.855741
  H           16.720197       22.973370       19.577105
  H           15.386012       25.001722       19.497502
  H           16.052886       25.455445       17.918130
  H           17.576345       25.348631       20.574625
  H           17.258303       26.800524       19.610801
  H           19.607073       25.544684       19.275623
  H           18.699625       26.037083       17.812927
  O           10.291876       33.097838       18.859998
  S           11.399481       32.205758       18.610991
  O           12.563409       32.168118       19.475025
  C           10.762999       30.551456       18.423442
  C           11.316782       30.062954       17.087556
  C           11.298696       31.272838       16.152861
  C           11.942360       32.404653       16.924153
  H           11.082068       29.927117       19.263023
  H            9.672006       30.606937       18.394190
  H           10.722434       29.234820       16.687002
  H           12.347812       29.710211       17.213452
  H           10.253818       31.526100       15.906916
  H           11.821136       31.074131       15.216020
  H           11.647266       33.392861       16.557460
  H           13.033346       32.316786       16.912769
  O           34.672853       24.132558       16.405615
  S           33.563071       24.190883       17.327343
  O           32.855241       25.427060       17.598532
  C           32.382915       22.934845       16.872807
  C           32.153827       22.126649       18.147263
  C           33.511022       22.043207       18.846448
  C           34.051278       23.456494       18.877190
  H           31.464869       23.397434       16.499039
  H           32.830104       22.312432       16.093818
  H           31.753431       21.132081       17.923613
  H           31.436064       22.642686       18.796740
  H           34.181728       21.392277       18.260919
  H           33.429802       21.619988       19.848640
  H           35.140835       23.494748       18.974660
  H           33.587630       24.036537       19.681355
  O           28.208311       36.120977       29.718157
  S           28.562215       37.520456       29.689699
  O           29.941655       37.961583       29.617223
  C           27.631050       38.313715       28.393291
  C           26.933908       39.491133       29.069738
  C           26.529541       39.002450       30.460952
  C           27.763431       38.353110       31.049232
  H           28.299931       38.629293       27.587370
  H           26.899700       37.597272       28.011144
  H           26.066191       39.827584       28.492359
  H           27.627010       40.336212       29.163285
  H           25.719014       38.260808       30.363930
  H           26.162163       39.814967       31.089401
  H           27.530485       37.629813       31.837063
  H           28.458429       39.106647       31.432979
  O            3.535560       17.871978        4.407607
  S            4.231147       18.682530        3.436132
  O            5.570532       18.358546        2.984708
  C            3.175818       18.893900        2.015357
  C            3.100923       20.402952        1.798438
  C            3.069874       21.030898        3.192181
  C            4.199298       20.385109        3.965199
  H            3.594083       18.366665        1.153047
  H            2.190946       18.487531        2.258442
  H            2.218415       20.679369        1.211690
  H            3.989809       20.750435        1.257663
  H            2.102669       20.804046        3.671194
  H            3.174937       22.116094        3.154598
  H            4.054812       20.430191        5.049262
  H            5.162225       20.833900        3.701651
  O           16.121712       34.556035       34.394014
  S           14.788957       35.075374       34.197416
  O           14.053630       35.725190       35.264999
  C           14.801906       36.142210       32.769588
  C           13.691012       35.610674       31.867766
  C           13.728189       34.087988       32.001342
  C           13.763980       33.800963       33.486783
  H           14.635391       37.179972       33.072611
  H           15.775524       36.048237       32.282312
  H           13.832700       35.928098       30.829177
  H           12.717952       35.986499       32.207192
  H           14.641561       33.703224       31.517494
  H           12.872352       33.613784       31.518875
  H           14.184529       32.818012       33.721405
  H           12.766385       33.891109       33.928120
  O           15.123977       36.722381       11.926782
  S           15.211320       37.118650       10.541162
  O           15.464482       38.491970       10.150518
  C           16.385274       36.057009        9.721559
  C           15.636559       35.494423        8.516228
  C           14.200242       35.255337        8.982738
  C           13.768776       36.531028        9.673137
  H           17.273400       36.627407        9.434541
  H           16.663398       35.257878       10.413106
  H           16.101121       34.572044        8.151674
  H           15.640990       36.223065        7.696252
  H           14.185207       34.413505        9.695123
  H           13.537852       35.000580        8.154223
  H           12.950519       36.376021       10.383438
  H           13.484765       37.295639        8.943200
  O            4.030090       28.229987       17.273449
  S            4.294597       29.589647       16.866066
  O            5.365000       29.920164       15.945361
  C            2.775751       30.308139       16.271192
  C            2.607081       31.596991       17.071386
  C            3.101667       31.286818       18.484531
  C            4.447416       30.615245       18.316754
  H            2.840313       30.488706       15.194286
  H            1.962066       29.610291       16.483614
  H            1.564665       31.932945       17.073487
  H            3.219394       32.395031       16.633773
  H            2.392082       30.599482       18.974896
  H            3.172383       32.184929       19.099751
  H            4.725790       29.996936       19.175998
  H            5.232548       31.352675       18.122164
  O           25.404798       16.036737        9.741745
  S           25.250323       16.740057       10.993176
  O           24.954758       16.046227       12.231700
  C           26.676719       17.780528       11.237743
  C           26.111021       19.176002       11.487816
  C           24.896779       19.312551       10.568701
  C           24.072054       18.061318       10.779514
  H           27.272202       17.412732       12.078354
  H           27.273433       17.762078       10.322433
  H           26.857607       19.951971       11.287864
  H           25.794025       19.272218       12.533548
  H           25.238601       19.370874        9.521726
  H           24.322349       20.215395       10.780839
  H           23.416020       17.835060        9.933035
  H           23.480088       18.131440       11.697533
  O            8.635927       30.826592        8.333952
  S            8.316219       31.752153        9.394953
  O            8.269368       31.339889       10.784393
  C            9.382506       33.172813        9.247443
  C            8.440765       34.373722        9.218417
  C            7.215509       33.932779        8.417094
  C            6.798148       32.597900        8.995114
  H           10.081664       33.208554       10.087919
  H            9.933934       33.089397        8.307673
  H            8.922531       35.249041        8.769843
  H            8.137520       34.639465       10.238575
  H            7.497317       33.816886        7.357117
  H            6.408298       34.664876        8.467545
  H            6.214458       31.993079        8.293973
  H            6.236238       32.731229        9.924942
  O           12.025543       40.620627       17.496437
  S           12.043724       39.510096       18.418928
  O           12.417272       38.172459       18.001929
  C           13.019884       39.968733       19.838000
  C           12.116820       39.708854       21.040846
  C           10.705551       40.104128       20.605094
  C           10.478246       39.430722       19.269033
  H           13.940235       39.378424       19.869449
  H           13.261665       41.031345       19.756771
  H           12.443258       40.279546       21.916773
  H           12.136441       38.644027       21.303634
  H           10.653909       41.200038       20.492334
  H            9.953364       39.810367       21.338591
  H            9.708377       39.924602       18.667799
  H           10.223618       38.374289       19.400230
  O           20.943332       22.516491       15.051663
  S           21.600327       22.162768       13.815605
  O           20.871449       22.035622       12.568500
  C           22.979029       23.265739       13.571405
  C           24.183094       22.352961       13.354696
  C           23.986274       21.161268       14.292208
  C           22.566925       20.685932       14.069266
  H           22.790698       23.921368       12.716313
  H           23.103043       23.862823       14.478219
  H           25.123405       22.875994       13.559031
  H           24.208711       22.003488       12.315219
  H           24.116305       21.494628       15.335454
  H           24.711859       20.368572       14.104433
  H           22.165847       20.126107       14.920049
  H           22.494077       20.079976       13.160636
  O           19.885112       39.073892       23.745907
  S           18.938107       38.778974       22.696714
  O           17.813181       37.888396       22.906740
  C           18.341455       40.317758       22.023548
  C           18.581286       40.211859       20.519831
  C           19.910600       39.475030       20.353071
  C           19.823538       38.252734       21.241110
  H           17.284599       40.453125       22.271000
  H           18.931771       41.130271       22.454302
  H           18.605838       41.200002       20.048163
  H           17.777340       39.632013       20.049991
  H           20.733032       40.129771       20.686716
  H           20.101814       39.206010       19.313280
  H           20.805306       37.863722       21.529033
  H           19.237969       37.461127       20.763023
  O           38.849256       34.115390       12.812388
  S           38.821519       34.388914       11.394991
  O           38.294082       33.434051       10.439614
  C           38.028773       35.964478       11.137789
  C           39.015841       36.772499       10.299517
  C           40.408484       36.405220       10.812791
  C           40.447722       34.893293       10.865114
  H           37.067354       35.825362       10.634976
  H           37.874538       36.432089       12.113366
  H           38.825529       37.847771       10.383608
  H           38.927944       36.494522        9.242018
  H           40.545128       36.824457       11.823715
  H           41.198332       36.807973       10.177157
  H           41.197272       34.509881       11.564592
  H           40.619991       34.470460        9.870310
  O           39.609988        5.133907       34.718348
  S           38.391761        5.739206       34.234471
  O           38.279428        6.267041       32.888562
  C           37.043280        4.611528       34.529327
  C           36.007348        5.425587       35.300077
  C           36.797441        6.335971       36.240690
  C           37.862711        6.991277       35.388648
  H           36.655512        4.230822       33.580013
  H           37.417207        3.784140       35.137445
  H           35.318195        4.776813       35.851131
  H           35.416308        6.036443       34.606660
  H           37.265015        5.724192       37.030310
  H           36.158926        7.074398       36.727643
  H           38.721080        7.339470       35.971797
  H           37.446715        7.822607       34.810775
  O           13.992943       34.815863       12.114753
  S           12.878673       35.438351       12.789668
  O           12.903843       36.832970       13.186032
  C           11.400044       35.131381       11.842871
  C           10.415899       34.515255       12.833704
  C           11.244243       33.613282       13.749177
  C           12.422889       34.448138       14.200851
  H           11.029330       36.064637       11.409163
  H           11.644973       34.422770       11.047836
  H            9.628831       33.953891       12.319027
  H            9.936867       35.302957       13.428140
  H           11.595019       32.738500       13.176365
  H           10.662822       33.244272       14.595274
  H           13.278490       33.842838       14.516539
  H           12.134874       35.130000       15.007207
  O           26.461543       18.320643        8.020927
  S           27.179698       19.281159        7.217022
  O           26.755189       19.628145        5.874602
  C           27.380630       20.776409        8.166154
  C           28.878581       21.067948        8.133799
  C           29.576898       19.710064        8.213201
  C           28.905765       18.835339        7.176554
  H           26.786830       21.583885        7.728107
  H           27.045627       20.579754        9.187574
  H           29.176361       21.723577        8.959013
  H           29.145470       21.564876        7.192983
  H           29.431757       19.285464        9.220697
  H           30.650759       19.791269        8.039047
  H           29.013985       17.766375        7.385612
  H           29.283318       19.055811        6.173087
  O           10.419990       38.257706       38.475492
  S            9.482356       38.539230       39.536711
  O            9.844329       39.345446       40.686359
  C            7.990632       39.195578       38.814930
  C            6.867483       38.316073       39.357983
  C            7.431044       36.895922       39.416048
  C            8.771274       37.007735       40.109936
  H            7.869687       40.247372       39.089889
  H            8.066853       39.101007       37.728906
  H            5.975309       38.370473       38.725081
  H            6.587528       38.642743       40.367048
  H            7.564844       36.516093       38.389293
  H            6.761671       36.210996       39.938463
  H            9.445103       36.178432       39.872638
  H            8.646502       37.083834       41.194713
  O           27.169890        9.860722        3.638738
  S           27.022940       10.564974        2.386925
  O           27.152216        9.892598        1.108685
  C           25.481599       11.459565        2.418093
  C           25.853386       12.901268        2.081691
  C           27.196557       13.163210        2.763657
  C           28.086265       11.996407        2.393263
  H           24.780585       11.028369        1.697573
  H           25.067675       11.390990        3.427135
  H           25.084329       13.602590        2.422572
  H           25.962193       13.018899        0.996507
  H           27.048668       13.196973        3.856081
  H           27.631745       14.115814        2.458278
  H           28.905345       11.842334        3.102819
  H           28.490022       12.115923        1.382919
  O           31.404184       36.233416       28.364762
  S           30.437918       35.441366       27.641169
  O           29.385066       36.049371       26.850896
  C           31.314271       34.263135       26.630833
  C           30.720568       32.906097       26.999434
  C           30.450471       32.955601       28.503560
  C           29.708846       34.251330       28.751110
  H           31.184190       34.503925       25.571778
  H           32.373582       34.307969       26.895503
  H           31.400241       32.087945       26.738338
  H           29.777954       32.748446       26.460987
  H           31.411249       32.957817       29.045133
  H           29.879020       32.091505       28.845439
  H           29.801957       34.605910       29.782470
  H           28.650879       34.154564       28.487593
  O           39.702697       38.633684       40.343010
  S           38.703082       38.298253       39.356675
  O           37.488919       37.586690       39.706227
  C           38.270604       39.778424       38.462776
  C           38.460344       39.421991       36.990752
  C           39.692056       38.518221       36.928415
  C           39.486977       37.460802       37.991433
  H           37.242505       40.071829       38.693919
  H           38.960361       40.571471       38.761960
  H           38.586566       40.318951       36.375098
  H           37.584143       38.876536       36.619201
  H           40.591910       39.114727       37.153904
  H           39.826023       38.076545       35.939944
  H           40.424368       37.007030       38.328316
  H           38.803187       36.680662       37.642271
  O           17.223506       25.664375       23.679306
  S           18.564235       26.109652       23.977257
  O           18.835679       27.085328       25.015079
  C           19.590097       24.677006       24.245833
  C           20.772973       24.853272       23.297343
  C           20.204350       25.473447       22.020687
  C           19.352388       26.641225       22.468633
  H           19.897623       24.624486       25.294245
  H           19.010886       23.788473       23.982728
  H           21.269463       23.898176       23.095375
  H           21.512220       25.532669       23.739195
  H           19.582156       24.726348       21.499999
  H           20.990685       25.787579       21.332865
  H           18.589931       26.919588       21.734280
  H           19.972580       27.511475       22.705543
  O           30.550844        6.068498       17.051578
  S           30.340919        6.477747       15.682985
  O           30.502706        5.557844       14.573794
  C           28.741117        7.254477       15.563310
  C           29.007169        8.612361       14.918897
  C           30.336217        9.102137       15.494700
  C           31.301315        7.944550       15.357670
  H           28.064038        6.633933       14.969181
  H           28.344320        7.375869       16.574258
  H           28.194711        9.317926       15.122833
  H           29.095329        8.502350       13.831043
  H           30.198544        9.358672       16.558484
  H           30.700134        9.994128       14.982824
  H           32.137058        8.000108       16.062330
  H           31.684386        7.871857       14.334893
  O           28.250060       37.307596       18.162355
  S           29.012991       37.966352       19.196075
  O           28.850729       37.635045       20.598432
  C           30.741807       37.868213       18.773506
  C           31.243836       39.308890       18.821615
  C           30.108562       40.172398       18.270881
  C           28.858419       39.732098       19.001276
  H           31.266293       37.217709       19.479380
  H           30.823302       37.462533       17.762080
  H           32.163150       39.431749       18.239148
  H           31.457834       39.598909       19.857662
  H           30.002563       39.986001       17.189021
  H           30.301624       41.237486       18.406579
  H           27.940004       39.961989       18.451944
  H           28.811627       40.174724       20.001272
  O           34.005316       22.713678       35.355886
  S           34.313607       24.096884       35.632107
  O           34.779515       24.533822       36.933919
  C           35.442728       24.685328       34.384783
  C           34.788210       25.943080       33.819482
  C           33.286338       25.659028       33.780804
  C           32.930581       25.112246       35.146332
  H           36.422784       24.885511       34.827409
  H           35.532211       23.915005       33.614851
  H           35.178775       26.184853       32.825247
  H           34.984436       26.798316       34.477789
  H           33.079362       24.904673       33.003302
  H           32.707084       26.551443       33.539639
  H           32.016882       24.509576       35.139826
  H           32.835907       25.919206       35.879785
  O            2.881985       29.882667       12.570980
  S            2.241706       30.931058       11.812350
  O            0.999979       30.711171       11.096485
  C            2.060288       32.359860       12.862403
  C            2.700969       33.506708       12.085121
  C            3.918496       32.911451       11.377240
  C            3.429192       31.652503       10.694721
  H            1.002674       32.538279       13.077159
  H            2.602341       32.170903       13.792281
  H            2.983188       34.331082       12.748643
  H            1.996399       33.897094       11.340487
  H            4.688724       32.663076       12.126546
  H            4.360824       33.610549       10.666108
  H            4.231574       30.934512       10.497810
  H            2.907714       31.889083        9.761881
  O           31.530752       14.683069       41.065498
  S           32.619869       13.963652       40.448357
  O           33.788189       13.547996       41.199994
  C           31.951317       12.552536       39.588827
  C           32.487593       12.665750       38.164226
  C           32.486450       14.157252       37.827743
  C           33.155978       14.848242       38.995846
  H           32.263784       11.627591       40.082124
  H           30.861397       12.630892       39.600461
  H           31.875355       12.092792       37.459681
  H           33.512580       12.278020       38.115566
  H           31.445012       14.505694       37.725784
  H           32.999287       14.365124       36.887590
  H           32.877222       15.903014       39.084450
  H           34.245032       14.757687       38.933711
  O           19.861268       18.124554       32.541814
  S           20.134482       18.759146       33.809586
  O           19.641756       18.216807       35.060902
  C           21.892257       19.022151       33.943956
  C           22.047786       20.508074       34.256592
  C           20.969789       21.227431       33.445269
  C           19.680619       20.480785       33.711275
  H           22.310509       18.382995       34.726928
  H           22.348265       18.778440       32.981219
  H           23.050768       20.867360       34.002739
  H           21.884431       20.687111       35.326434
  H           21.225847       21.174504       32.373806
  H           20.889250       22.281311       33.715365
  H           18.936173       20.619797       32.920973
  H           19.252679       20.768130       34.676884
  O           36.311661       12.176453       13.679532
  S           34.924746       12.092237       13.287137
  O           34.525584       11.992829       11.896637
  C           34.155165       10.773579       14.206858
  C           32.933931       11.409971       14.865259
  C           33.358185       12.821703       15.271241
  C           34.019246       13.425052       14.050926
  H           33.889152        9.951314       13.536323
  H           34.864704       10.424355       14.961044
  H           32.595284       10.826682       15.728157
  H           32.105721       11.466210       14.148178
  H           34.079906       12.758935       16.102853
  H           32.512521       13.421547       15.610563
  H           34.705452       14.241493       14.297192
  H           33.271573       13.774737       13.332033
  O           16.069367        4.356141       32.822995
  S           15.828538        3.033217       33.348801
  O           16.853849        2.290192       34.055448
  C           14.354082        3.081272       34.349136
  C           13.460071        1.977439       33.790389
  C           13.663271        1.993228       32.275048
  C           15.160599        2.002953       32.055698
  H           14.606989        2.923417       35.401571
  H           13.886876        4.060856       34.221330
  H           12.410475        2.138805       34.058362
  H           13.766799        1.004228       34.192979
  H           13.211762        2.908829       31.857657
  H           13.189517        1.138806       31.789641
  H           15.446200        2.407379       31.079496
  H           15.581717        1.000040       32.177873
  O           23.676432       25.159097       41.054569
  S           23.348810       26.485677       40.588254
  O           23.910478       27.674363       41.200016
  C           23.627347       26.552305       38.829000
  C           22.315231       27.062543       38.239161
  C           21.200653       26.426112       39.070107
  C           21.575493       26.659060       40.517667
  H           24.471621       27.210888       38.605463
  H           23.842211       25.539616       38.479007
  H           22.225936       26.803578       37.178754
  H           22.262206       28.154695       38.326868
  H           21.160937       25.344765       38.856772
  H           20.222420       26.847010       38.833455
  H           21.108874       25.941587       41.200016
  H           21.327910       27.679116       40.827971
  O           23.242984        6.861895        5.655429
  S           22.102302        6.213520        6.257968
  O           21.331809        6.841772        7.313591
  C           20.994522        5.696256        4.960948
  C           20.760213        4.208628        5.209873
  C           22.096304        3.643728        5.693141
  C           22.571959        4.576335        6.785933
  H           20.069482        6.278703        5.000393
  H           21.494029        5.855217        4.002082
  H           20.411882        3.701493        4.303794
  H           19.999481        4.072113        5.988301
  H           22.813960        3.641831        4.855665
  H           22.001396        2.617529        6.050925
  H           23.654993        4.536497        6.939396
  H           22.057081        4.370127        7.729585
  O           28.435286       12.177082        5.225427
  S           28.718873       12.968285        6.399385
  O           29.807564       12.641844        7.299879
  C           28.863755       14.676009        5.909808
  C           27.891877       15.430887        6.812865
  C           26.675567       14.520032        6.982378
  C           27.223159       13.158366        7.351440
  H           29.896596       15.016090        6.028490
  H           28.562988       14.757330        4.862370
  H           27.614258       16.398459        6.381320
  H           28.352663       15.615823        7.791014
  H           26.128187       14.463559        6.026561
  H           25.984847       14.896042        7.738435
  H           26.532145       12.342621        7.116579
  H           27.495355       13.118750        8.410893
  O           21.834594       13.286109       18.439329
  S           21.575034       14.666570       18.105329
  O           21.362698       15.097996       16.737307
  C           20.224897       15.248692       19.112933
  C           20.751008       16.512120       19.788846
  C           22.219921       16.239172       20.113797
  C           22.833115       15.692841       18.842689
  H           19.345775       15.440963       18.491101
  H           19.995676       14.478962       19.853996
  H           20.176497       16.752603       20.689737
  H           20.677906       17.364839       19.102678
  H           22.280168       15.487599       20.918725
  H           22.736432       17.136202       20.458257
  H           23.732976       15.096910       19.024944
  H           23.060228       16.499303       18.138318
  O           31.852238       36.657216       36.193991
  S           32.877838       35.917937       36.891279
  O           32.591725       34.677161       37.585048
  C           34.244537       35.657328       35.777180
  C           35.468116       36.186744       36.520465
  C           34.998084       37.425962       37.282836
  C           33.733768       37.015336       38.006088
  H           34.331705       34.595573       35.529029
  H           34.060534       36.237895       34.869830
  H           36.284262       36.423599       35.829593
  H           35.832684       35.433984       37.230214
  H           34.779877       38.233456       36.563992
  H           35.757590       37.793687       37.974232
  H           33.088614       37.864370       38.253106
  H           33.966924       36.451559       38.914875
  O           39.886577       32.412016       27.647843
  S           38.556033       32.370226       27.088820
  O           38.234749       33.004083       25.824817
  C           38.015517       30.672450       27.039858
  C           36.672521       30.663141       27.765238
  C           36.807339       31.655776       28.920357
  C           37.387527       32.917731       28.319483
  H           37.934567       30.332121       26.003459
  H           38.749693       30.065107       27.574946
  H           36.418219       29.659787       28.123165
  H           35.875806       30.993063       27.087229
  H           37.496530       31.242468       29.675732
  H           35.851652       31.844624       29.411376
  H           37.897685       33.545824       29.056597
  H           36.614531       33.500681       27.808849
  O            2.631798        8.217754       36.937289
  S            3.095598        9.194472       35.980465
  O            3.656681        8.808050       34.700401
  C            1.795030       10.382545       35.708428
  C            2.440241       11.741934       35.964681
  C            3.406515       11.539608       37.132234
  C            4.224510       10.313740       36.788239
  H            1.405226       10.288678       34.690714
  H            0.998938       10.188465       36.431458
  H            1.688221       12.505294       36.191056
  H            2.997426       12.067730       35.077718
  H            2.828984       11.364721       38.055420
  H            4.038309       12.413595       37.296804
  H            4.656132        9.827871       37.668997
  H            5.017986       10.558750       36.075172
  O           35.237038       20.552174        6.574234
  S           34.678416       21.281673        7.687955
  O           34.691713       22.730748        7.739968
  C           33.013851       20.706962        7.963508
  C           32.968900       20.315399        9.438146
  C           34.327575       19.688377        9.752226
  C           35.364420       20.645965        9.206168
  H           32.296919       21.495499        7.717099
  H           32.843547       19.836233        7.325521
  H           32.147129       19.620879        9.642680
  H           32.821991       21.206789       10.060354
  H           34.404199       18.713485        9.242212
  H           34.461092       19.514981       10.820967
  H           36.325157       20.163162        9.001263
  H           35.513143       21.492050        9.884491
  O           26.371259       27.407561       11.940513
  S           26.679474       26.110883       12.495699
  O           25.788506       24.977659       12.338602
  C           28.314357       25.641081       11.963307
  C           29.067705       25.304308       13.247422
  C           28.587684       26.307707       14.296502
  C           27.076116       26.294536       14.224469
  H           28.257738       24.792335       11.275611
  H           28.768815       26.498204       11.460307
  H           30.151718       25.360590       13.101652
  H           28.821940       24.285819       13.572352
  H           28.971833       27.309960       14.042890
  H           28.946577       26.058084       15.295994
  H           26.622578       27.213207       14.609758
  H           26.665442       25.429196       14.754217
  O            0.998812       28.021471        6.812658
  S            2.299504       27.415069        6.971019
  O            2.676725       26.211040        6.256373
  C            3.542857       28.663253        6.700633
  C            4.430848       28.613206        7.941144
  C            3.496289       28.345944        9.121386
  C            2.626571       27.178543        8.707908
  H            4.095562       28.452017        5.780634
  H            3.042526       29.631469        6.620461
  H            4.988683       29.546638        8.071625
  H            5.155827       27.794735        7.852764
  H            2.874211       29.238705        9.301376
  H            4.046455       28.134485       10.039374
  H            1.680777       27.135502        9.257199
  H            3.162536       26.230757        8.819905
  O           37.168154       32.277475        4.053489
  S           36.987425       31.295797        3.010300
  O           35.837900       31.318146        2.126676
  C           38.473041       31.234044        2.027379
  C           38.880119       29.762966        2.016600
  C           38.558527       29.223538        3.410657
  C           37.141938       29.663285        3.710822
  H           38.277599       31.622303        1.023608
  H           39.234121       31.843598        2.520736
  H           39.941092       29.643346        1.772617
  H           38.296123       29.215922        1.266272
  H           39.256818       29.665518        4.141030
  H           38.664762       28.139140        3.464464
  H           36.925252       29.701715        4.783049
  H           36.415447       29.015706        3.209870
  O           15.438202       30.891729       29.149625
  S           16.780367       30.369987       29.044845
  O           17.149975       29.085143       29.606330
  C           17.274607       30.418323       27.333007
  C           18.598658       31.177737       27.324189
  C           18.463182       32.278919       28.376256
  C           17.933121       31.602095       29.621705
  H           17.371443       29.402297       26.939541
  H           16.510977       30.963406       26.772691
  H           18.816182       31.590888       26.333487
  H           19.420587       30.505173       27.598761
  H           17.744494       33.035598       28.019429
  H           19.411427       32.784611       28.563893
  H           17.422684       32.294096       30.298971
  H           18.734268       31.083627       30.157854
  O           31.536731       17.585622       15.500596
  S           32.755972       18.028119       14.866366
  O           33.740979       18.826156       15.570353
  C           33.564702       16.613075       14.144836
  C           33.800974       16.993150       12.685515
  C           32.573568       17.795188       12.251911
  C           32.354755       18.836219       13.328282
  H           34.495291       16.397973       14.677972
  H           32.887359       15.758682       14.218452
  H           33.945039       16.106125       12.059471
  H           34.698446       17.618003       12.599474
  H           31.702374       17.121557       12.191562
  H           32.708651       18.251461       11.270246
  H           31.324038       19.202887       13.364006
  H           33.042715       19.678637       13.205231
  O            5.580786        4.004375       38.887486
  S            4.789583        4.626871       39.922424
  O            4.554208        3.982784       41.200097
  C            5.422247        6.268468       40.208604
  C            4.213423        7.189453       40.065663
  C            3.368203        6.607329       38.932289
  C            3.223069        5.131987       39.236427
  H            5.880213        6.328655       41.200140
  H            6.168268        6.485361       39.440092
  H            4.518417        8.219682       39.853281
  H            3.630732        7.193337       40.995048
  H            3.897833        6.748066       37.975165
  H            2.398385        7.100105       38.850280
  H            3.001063        4.532942       38.347631
  H            2.455518        4.961876       39.998023
  O            8.521971       11.789625       32.884564
  S            8.815883       10.405789       33.173034
  O            8.451425        9.791011       34.434746
  C            8.190578        9.403937       31.838011
  C            9.380411        8.563194       31.382657
  C           10.606087        9.471360       31.486348
  C           10.544653       10.098363       32.862318
  H            7.353403        8.791863       32.185868
  H            7.857679       10.070268       31.038398
  H            9.239686        8.190426       30.362490
  H            9.505989        7.698020       32.045231
  H           10.546311       10.252062       30.709604
  H           11.536366        8.922331       31.333870
  H           11.102419       11.037848       32.928384
  H           10.901887        9.401813       33.627368
  O            8.747940       16.975388       21.455338
  S            7.857848       18.097085       21.270590
  O            6.880390       18.132563       20.200069
  C            7.036064       18.428511       22.817144
  C            7.291123       19.908097       23.092227
  C            8.716855       20.188487       22.616340
  C            8.814623       19.601149       21.225055
  H            5.970573       18.194830       22.735765
  H            7.496049       17.805606       23.588249
  H            7.166459       20.144746       24.154280
  H            6.584807       20.524457       22.522562
  H            9.430287       19.687287       23.291776
  H            8.947939       21.254635       22.621805
  H            9.843580       19.373076       20.929540
  H            8.356228       20.265287       20.485531
  O           36.979460       24.528570       36.925478
  S           38.247700       23.969955       37.330588
  O           38.468123       22.538452       37.400673
  C           39.533254       24.706610       36.339783
  C           40.543132       25.254515       37.344694
  C           39.724194       25.796479       38.516622
  C           38.741802       24.703812       38.878818
  H           39.970089       23.958569       35.671869
  H           39.090846       25.515978       35.753781
  H           41.170829       26.032507       36.897228
  H           41.200176       24.449298       37.695719
  H           39.183801       26.702148       38.193916
  H           40.354120       26.070419       39.364118
  H           37.859050       25.080889       39.404805
  H           39.224273       23.924925       39.477697
  O           10.330027       34.506865       37.813094
  S            9.397928       34.372938       36.718629
  O            8.139570       33.667308       36.864652
  C            9.079820       35.991993       36.044485
  C            9.369150       35.863283       34.551293
  C           10.573733       34.929243       34.431511
  C           10.256609       33.727732       35.295226
  H            8.046692       36.288685       36.247271
  H            9.769028       36.698386       36.513741
  H            9.568971       36.839598       34.097000
  H            8.507182       35.420429       34.037298
  H           11.471871       35.444391       34.811472
  H           10.768344       34.642898       33.396990
  H           11.151513       33.187499       35.619870
  H            9.577518       33.041666       34.779232
  O           13.250345       31.799141       25.322213
  S           13.503492       32.210034       26.682979
  O           13.756892       31.249921       27.739705
  C           14.810877       33.421512       26.674712
  C           14.245880       34.619339       27.433585
  C           12.770335       34.711111       27.043526
  C           12.207945       33.316069       27.210183
  H           15.708193       33.011323       27.147013
  H           15.024476       33.685864       25.636111
  H           14.786167       35.539706       27.187587
  H           14.331466       34.454865       28.514752
  H           12.692247       35.029389       25.990434
  H           12.230936       35.439250       27.650948
  H           11.310076       33.143293       26.608452
  H           11.994729       33.101910       28.262216
  O           38.498322       16.419465       33.825917
  S           37.885602       15.127739       34.027461
  O           38.545244       13.896588       33.637797
  C           37.380551       15.000397       35.732074
  C           35.902246       14.623798       35.680229
  C           35.310215       15.390980       34.497550
  C           36.243679       15.144770       33.332120
  H           37.986156       14.251013       36.249923
  H           37.515686       15.977758       36.201864
  H           35.393160       14.872034       36.617624
  H           35.793874       13.545402       35.511065
  H           35.280592       16.466380       34.740528
  H           34.291006       15.073555       34.272705
  H           36.178858       15.920222       32.562334
  H           36.061515       14.162899       32.883962
  O            8.674774       27.515698       25.198414
  S            9.443859       27.756334       26.396414
  O            8.878065       27.579249       27.719750
  C           10.964697       26.833145       26.287899
  C           12.069085       27.859523       26.526170
  C           11.607838       29.145959       25.840507
  C           10.184403       29.375603       26.300175
  H           10.971941       26.029609       27.030042
  H           11.037023       26.411814       25.282191
  H           13.029422       27.513052       26.129670
  H           12.191277       28.038738       27.601461
  H           11.636345       29.004941       24.747026
  H           12.251985       29.992444       26.082663
  H            9.609317       30.002093       25.611054
  H           10.161596       29.812498       27.303520
  O           16.495636       13.430588        2.168615
  S           16.810799       13.744694        3.542154
  O           17.814950       14.730328        3.892734
  C           15.295200       14.132028        4.396515
  C           15.281766       13.213625        5.615635
  C           15.877966       11.884220        5.151924
  C           17.157249       12.233295        4.422691
  H           15.276050       15.191146        4.669284
  H           14.459888       13.904063        3.729817
  H           14.267600       13.085626        6.008805
  H           15.903544       13.637682        6.413676
  H           15.171338       11.389383        4.464746
  H           16.060808       11.204705        5.985548
  H           17.469668       11.459151        3.714739
  H           17.968321       12.437556        5.128765
  O           35.615138       21.520223       31.417696
  S           35.330331       22.219884       30.187266
  O           33.980428       22.593655       29.812091
  C           36.376203       23.660556       30.099989
  C           37.085266       23.554358       28.752454
  C           37.379457       22.068524       28.543772
  C           36.082270       21.343074       28.828776
  H           35.774000       24.569620       30.186339
  H           37.094983       23.610619       30.921610
  H           38.001900       24.153490       28.734513
  H           36.428510       23.915777       27.951611
  H           38.158395       21.749028       29.256217
  H           37.745437       21.861179       27.537210
  H           36.231667       20.294775       29.105993
  H           35.401390       21.405972       27.974056
  O            8.178471        1.000000       26.497393
  S            6.959064        1.750424       26.683162
  O            5.683314        1.098157       26.906116
  C            7.226316        2.955853       27.968664
  C            6.820656        4.291116       27.350268
  C            7.277427        4.239527       25.892016
  C            6.781755        2.917679       25.346831
  H            6.630932        2.704453       28.851170
  H            8.289021        2.953139       28.223321
  H            7.272623        5.133296       27.885017
  H            5.730872        4.409539       27.390871
  H            8.379070        4.277137       25.855025
  H            6.897174        5.082926       25.313928
  H            7.353352        2.572586       24.479486
  H            5.718875        2.972343       25.091105
  O            7.920028       15.442324       22.798304
  S            9.071547       14.734723       23.306149
  O            8.981515       13.838512       24.442546
  C            9.851819       13.877444       21.952174
  C           11.310773       14.324721       21.988171
  C           11.292063       15.801897       22.382379
  C           10.391812       15.897972       23.595029
  H            9.741594       12.796307       22.076645
  H            9.371045       14.196341       21.024078
  H           11.800032       14.171645       21.020342
  H           11.862735       13.749441       22.741624
  H           10.874738       16.394340       21.550964
  H           12.292883       16.182493       22.591197
  H            9.974094       16.899551       23.738040
  H           10.919460       15.584652       24.501405
  O           26.927677       25.335476       23.054949
  S           26.310651       24.239947       22.345236
  O           27.079021       23.337042       21.510328
  C           25.351491       23.283445       23.503733
  C           23.955145       23.204730       22.892242
  C           23.701635       24.562863       22.237256
  C           24.929009       24.858381       21.402737
  H           25.803737       22.297451       23.644408
  H           25.328912       23.821815       24.454443
  H           23.198869       22.975044       23.650393
  H           23.921413       22.416343       22.130267
  H           23.582323       25.328086       23.022494
  H           22.793091       24.562830       21.633395
  H           25.065768       25.926871       21.208508
  H           24.900491       24.311126       20.455214
  O           37.310373       20.360896        4.755854
  S           36.520832       20.377180        3.547152
  O           37.081423       20.015247        2.259735
  C           35.041430       19.422426        3.824309
  C           33.892509       20.352662        3.444123
  C           34.305256       21.749131        3.910293
  C           35.713431       21.960046        3.397695
  H           35.061333       18.511659        3.218829
  H           34.996217       19.163482        4.885018
  H           32.951356       20.035120        3.905534
  H           33.752978       20.353880        2.356084
  H           34.292781       21.782412        5.012625
  H           33.623713       22.519819        3.547470
  H           36.267833       22.710609        3.969879
  H           35.708535       22.232725        2.337637
  O           24.187358       11.758271       31.134467
  S           24.787258       12.502738       30.052575
  O           24.641992       12.095938       28.668338
  C           24.307953       14.212477       30.207682
  C           25.618948       14.994167       30.195304
  C           26.626613       14.144923       30.970671
  C           26.518926       12.747085       30.400887
  H           23.644103       14.494205       29.385228
  H           23.791208       14.336657       31.162540
  H           25.497525       15.985914       30.643852
  H           25.967431       15.129098       29.163968
  H           26.353175       14.142239       32.039140
  H           27.641232       14.537314       30.888955
  H           26.866369       11.975421       31.095090
  H           27.063686       12.665741       29.454991
  O           10.712462        3.519823        7.698087
  S           11.641397        2.940138        6.757000
  O           12.533664        1.858627        7.126991
  C           10.743866        2.474716        5.289069
  C           11.487585        3.149257        4.139384
  C           11.939541        4.511110        4.667488
  C           12.598492        4.242128        6.003015
  H           10.719867        1.385532        5.191088
  H            9.726081        2.863464        5.373857
  H           10.849333        3.251031        3.255203
  H           12.364778        2.554023        3.857373
  H           11.057427        5.159267        4.802275
  H           12.617799        5.013539        3.976379
  H           12.607128        5.118512        6.658741
  H           13.619318        3.870481        5.869254
  O           28.636616       33.254010       11.319504
  S           28.764658       32.609494       12.605119
  O           29.029605       33.360649       13.816840
  C           27.336355       31.575318       12.864791
  C           27.900618       30.195186       13.191510
  C           29.135996       30.021754       12.307450
  C           29.951701       31.284815       12.479211
  H           26.720631       31.978766       13.673873
  H           26.760680       31.549239       11.936288
  H           27.161272       29.407714       13.010529
  H           28.193913       30.148381       14.247487
  H           28.818402       29.914022       11.256770
  H           29.708290       29.132027       12.573843
  H           30.626205       31.474776       11.638343
  H           30.522731       31.259379       13.412687
  O           39.653694       26.856163       24.045285
  S           39.037338       26.402594       22.820956
  O           37.776546       26.943018       22.350801
  C           40.239007       26.509098       21.508839
  C           40.265845       25.117493       20.882248
  C           40.104685       24.128880       22.037441
  C           38.925587       24.623121       22.847167
  H           39.949502       27.285071       20.794310
  H           41.207427       26.753720       21.952148
  H           41.196145       24.945127       20.330586
  H           39.430031       25.003876       20.180959
  H           41.019558       24.137818       22.653337
  H           39.952581       23.107982       21.684265
  H           38.940958       24.269381       23.882895
  H           37.979272       24.341780       22.374479
  O            6.093531       23.561216       30.099749
  S            5.709249       22.207961       30.424757
  O            4.319683       21.796935       30.478270
  C            6.602616       21.093978       29.358016
  C            7.284886       20.105330       30.299813
  C            7.721530       20.915030       31.521094
  C            6.511294       21.720755       31.941020
  H            5.914493       20.604217       28.662945
  H            7.343069       21.674324       28.802024
  H            8.135970       19.614300       29.816031
  H            6.575355       19.327603       30.608046
  H            8.546168       21.588845       31.234132
  H            8.081234       20.275860       32.328667
  H            6.772108       22.611523       32.521199
  H            5.806409       21.103997       32.507453
  O           34.219464       16.633691        8.549596
  S           35.423090       16.206883        7.876008
  O           35.445988       15.044867        7.008889
  C           36.104186       17.599770        6.996819
  C           37.551965       17.697734        7.470359
  C           37.537216       17.340441        8.956940
  C           36.739744       16.059200        9.069453
  H           36.026034       17.439455        5.917610
  H           35.541353       18.491860        7.282465
  H           37.961544       18.699127        7.300191
  H           38.176171       16.979181        6.925062
  H           37.040297       18.148403        9.519674
  H           38.544307       17.226075        9.360410
  H           36.315821       15.906696       10.067016
  H           37.347353       15.192824        8.789624
  O           35.722288       39.307291        8.312436
  S           35.357479       39.741767        6.984752
  O           35.016975       41.121297        6.695521
  C           36.619997       39.205428        5.846601
  C           35.873030       38.437028        4.759631
  C           34.753673       37.676177        5.470930
  C           34.062440       38.687205        6.359874
  H           37.163237       40.068798        5.451654
  H           37.306999       38.547443        6.384452
  H           36.541165       37.758714        4.218348
  H           35.439679       39.136303        4.034014
  H           35.193721       36.870390        6.082047
  H           34.059271       37.216481        4.766242
  H           33.529020       38.225385        7.196704
  H           33.373842       39.311869        5.782183
  O           24.128358       18.843197       24.803179
  S           24.755554       19.207573       23.554798
  O           24.318468       20.354574       22.782758
  C           26.514857       19.321709       23.817151
  C           27.133282       18.415005       22.756331
  C           26.198752       17.211501       22.629718
  C           24.803826       17.780610       22.486554
  H           26.843504       20.360832       23.723796
  H           26.734888       18.950346       24.821081
  H           28.148232       18.110290       23.032963
  H           27.187629       18.941754       21.795663
  H           26.268011       16.600107       23.545032
  H           26.463806       16.574613       21.784602
  H           24.022190       17.073763       22.782379
  H           24.623275       18.124361       21.463159
  O           17.019323       12.673949       31.555479
  S           15.723107       13.080061       31.066095
  O           14.686448       12.116890       30.749328
  C           15.056818       14.304689       32.176656
  C           14.698631       15.492665       31.287659
  C           15.793700       15.571644       30.223522
  C           15.940041       14.170126       29.671679
  H           14.189230       13.901040       32.706618
  H           15.836742       14.576756       32.892126
  H           14.631382       16.419741       31.866888
  H           13.728032       15.323258       30.805435
  H           16.736468       15.894769       30.695940
  H           15.551799       16.291033       29.439900
  H           16.918464       13.991538       29.214627
  H           15.148440       13.948181       28.949039
  O           10.290124       28.142378       11.755711
  S            9.980199       28.504527       13.118573
  O           10.861398       29.341881       13.909159
  C            8.335542       29.190240       13.162194
  C            7.596288       28.379538       14.223403
  C            8.096377       26.941445       14.083399
  C            9.606785       27.027578       14.045333
  H            8.377674       30.256409       13.403044
  H            7.880558       29.048348       12.178804
  H            6.510919       28.443828       14.091720
  H            7.839248       28.758189       15.223850
  H            7.715842       26.514873       13.140197
  H            7.748515       26.305917       14.898995
  H           10.071393       26.162849       13.561099
  H           10.018275       27.152929       15.051843
  O           22.726863       37.178185       23.063469
  S           22.330911       35.818660       23.345451
  O           22.965288       35.035434       24.387958
  C           20.565147       35.781433       23.585644
  C           20.056548       34.713153       22.621276
  C           20.909870       34.840234       21.358940
  C           22.347461       34.878818       21.830154
  H           20.331185       35.550101       24.628835
  H           20.164346       36.763593       23.323115
  H           18.991456       34.845585       22.403238
  H           20.191545       33.716086       23.058233
  H           20.654102       35.779655       20.840797
  H           20.735078       34.019057       20.662366
  H           23.019943       35.355240       21.109813
  H           22.710425       33.873399       22.065714
  O           12.289041       35.942581        5.772857
  S           12.651681       36.980895        4.837445
  O           12.236471       36.941482        3.448652
  C           12.194290       38.556186        5.534761
  C           13.467475       39.396617        5.484024
  C           14.619420       38.440918        5.796213
  C           14.415210       37.236618        4.902815
  H           11.376008       38.999731        4.960145
  H           11.878039       38.393018        6.567990
  H           13.427435       40.226749        6.197310
  H           13.600692       39.818497        4.480246
  H           14.565697       38.141532        6.856347
  H           15.592673       38.905464        5.631672
  H           14.903242       36.334370        5.284746
  H           14.760226       37.440502        3.884240
  O           12.443297       39.063756       31.001038
  S           11.402753       38.672771       31.922449
  O           10.502301       37.571704       31.640424
  C           12.132705       38.427519       33.529938
  C           11.312937       39.302077       34.474939
  C           10.976009       40.571917       33.692770
  C           10.437318       40.107644       32.356932
  H           12.097878       37.368733       33.802446
  H           13.170456       38.767498       33.488863
  H           11.866973       39.528339       35.392190
  H           10.386641       38.786607       34.757014
  H           11.895407       41.163481       33.547305
  H           10.257733       41.199948       34.221690
  H           10.531538       40.865032       31.572339
  H            9.392598       39.792616       32.443051
  O           23.185775       21.822293        0.995782
  S           23.503416       21.223670        2.270676
  O           22.844927       21.633415        3.495911
  C           23.380709       19.452677        2.110914
  C           24.720043       18.916172        2.609158
  C           25.779222       19.910473        2.132391
  C           25.268145       21.281172        2.519929
  H           22.535509       19.078836        2.696046
  H           23.236314       19.214643        1.054178
  H           24.913344       17.907506        2.228727
  H           24.723774       18.871417        3.705189
  H           25.878600       19.837465        1.036401
  H           26.758090       19.706243        2.568517
  H           25.698736       22.084251        1.913500
  H           25.448369       21.481796        3.580763
  O           31.501158        7.177804       18.699907
  S           30.717282        6.749526       19.834243
  O           31.254114        6.748553       21.181280
  C           29.174433        7.642019       19.825721
  C           28.093853        6.565913       19.890858
  C           28.601764        5.402505       19.038620
  C           30.022309        5.143508       19.491580
  H           29.132222        8.330440       20.674717
  H           29.109015        8.201339       18.889194
  H           27.131889        6.942539       19.527156
  H           27.957101        6.231501       20.926603
  H           28.589249        5.698124       17.976145
  H           27.976289        4.514855       19.143303
  H           30.626355        4.636260       18.732681
  H           30.038693        4.567943       20.422470
  O           27.248645        6.399316        7.384705
  S           27.717438        7.205792        6.282694
  O           27.573574        6.779246        4.904266
  C           27.043390        8.846813        6.455064
  C           28.250595        9.779113        6.396995
  C           29.378729        9.059002        7.136289
  C           29.418694        7.656107        6.570173
  H           26.322434        9.044247        5.656476
  H           26.549108        8.912207        7.427488
  H           28.027489       10.751043        6.849847
  H           28.544358        9.950635        5.354123
  H           29.144954        9.027871        8.213684
  H           30.335856        9.569194        7.019187
  H           29.879641        6.934030        7.251519
  H           29.935978        7.636616        5.605737
  O           36.703138       31.569039       10.725617
  S           36.042060       32.471876        9.813224
  O           36.216137       33.909115        9.895330
  C           36.381729       31.941113        8.145916
  C           35.011705       31.802841        7.487270
  C           34.078181       31.246224        8.562681
  C           34.297217       32.104917        9.789412
  H           37.018408       32.672405        7.639602
  H           36.889241       30.974429        8.192318
  H           35.053595       31.147396        6.610836
  H           34.650716       32.785220        7.158760
  H           34.353761       30.199954        8.776635
  H           33.034904       31.255881        8.243967
  H           34.015247       31.600653       10.719095
  H           33.758338       33.053955        9.705531
  O           33.129633       27.636755       15.045153
  S           34.313306       27.454573       14.238724
  O           34.813551       26.137081       13.897156
  C           34.134109       28.411624       12.745760
  C           35.388644       29.278475       12.677850
  C           35.700469       29.687076       14.117854
  C           35.646898       28.413239       14.933126
  H           34.035841       27.747969       11.881813
  H           33.239209       29.031212       12.843044
  H           35.237019       30.151788       12.034549
  H           36.225722       28.698522       12.270106
  H           34.931762       30.395848       14.468754
  H           36.669807       30.180339       14.202568
  H           35.454713       28.594286       15.995382
  H           36.568621       27.834277       14.817674
  O           18.901826        5.898772       22.189545
  S           19.477273        5.060907       21.164146
  O           19.593194        5.502832       19.787932
  C           21.069944        4.491237       21.726175
  C           21.017618        2.971749       21.590828
  C           19.595787        2.560368       21.974185
  C           18.673696        3.469286       21.190720
  H           21.865047        4.938730       21.122801
  H           21.187124        4.783733       22.772557
  H           21.763808        2.487371       22.229639
  H           21.218599        2.678788       20.553004
  H           19.452489        2.714877       23.056771
  H           19.402602        1.508090       21.760902
  H           17.682554        3.565811       21.645055
  H           18.574071        3.129090       20.155132
  O            3.787269       24.595507       27.626898
  S            4.668629       24.360076       26.507802
  O            4.166865       23.964153       25.206196
  C            5.728358       25.779971       26.313193
  C            7.147634       25.218230       26.314395
  C            7.151318       24.076870       27.331786
  C            5.948232       23.220411       27.001239
  H            5.486731       26.306636       25.385432
  H            5.572368       26.441904       27.168595
  H            7.882599       25.988915       26.570070
  H            7.398762       24.826814       25.320902
  H            7.052747       24.495428       28.347411
  H            8.077812       23.501891       27.298494
  H            5.601715       22.624975       27.851816
  H            6.155709       22.563781       26.150421
  O           18.614993       10.822349       25.056607
  S           19.204377        9.554065       24.697886
  O           20.640625        9.370398       24.619399
  C           18.515165        8.291499       25.750461
  C           17.984589        7.225566       24.795382
  C           17.406822        7.979281       23.597092
  C           18.467406        8.975297       23.180784
  H           19.282573        7.903893       26.426734
  H           17.700311        8.735692       26.327441
  H           17.229547        6.596047       25.278204
  H           18.803935        6.576771       24.462160
  H           16.490023        8.507615       23.908127
  H           17.141194        7.306981       22.780052
  H           18.059880        9.824439       22.623127
  H           19.252772        8.489710       22.592986
  O            5.745225       24.337065        9.849461
  S            6.542996       24.992847       10.858476
  O            6.221493       24.901838       12.269523
  C            8.247914       24.530209       10.621370
  C            9.008000       25.850854       10.531550
  C            8.098276       26.812790        9.766776
  C            6.738639       26.711040       10.423460
  H            8.588522       23.906178       11.452677
  H            8.323369       23.974572        9.683407
  H            9.973161       25.723514       10.029804
  H            9.198386       26.245152       11.537325
  H            8.036488       26.493631        8.712869
  H            8.478634       27.835139        9.781962
  H            5.921675       27.017952        9.762799
  H            6.704961       27.294850       11.348734
  O           38.250584       35.221595       14.617122
  S           38.785683       35.909469       15.768251
  O           38.806207       35.301163       17.084398
  C           40.424315       36.487619       15.371229
  C           40.405338       37.980609       15.688279
  C           39.020988       38.483848       15.278245
  C           38.028848       37.519375       15.891147
  H           41.169044       35.943586       15.959367
  H           40.596450       36.319524       14.305248
  H           41.201661       38.512504       15.156811
  H           40.551195       38.139256       16.763852
  H           38.939164       38.465973       14.178525
  H           38.844024       39.508763       15.607384
  H           37.064687       37.512457       15.373029
  H           37.876181       37.735491       16.953261
  O           30.584525       17.652733       24.219366
  S           30.862944       18.226382       25.514746
  O           30.031878       17.950522       26.670571
  C           32.563314       17.889322       25.929635
  C           33.167041       19.250888       26.263629
  C           32.534587       20.245787       25.289988
  C           31.043661       19.992268       25.345365
  H           32.615236       17.190329       26.769405
  H           33.048726       17.454305       25.052517
  H           34.258515       19.237242       26.174189
  H           32.914949       19.532438       27.293425
  H           32.915938       20.051500       24.273512
  H           32.778391       21.278334       25.543968
  H           30.519655       20.330474       24.445846
  H           30.598736       20.459013       26.229837
  O            4.610183       18.264071       38.198904
  S            3.221297       17.880400       38.107286
  O            2.458268       18.047445       36.885573
  C            3.061529       16.194932       38.664666
  C            1.984175       16.235396       39.745208
  C            2.196396       17.543920       40.507131
  C            2.319492       18.623784       39.454069
  H            2.791410       15.544804       37.827487
  H            4.020676       15.882107       39.084640
  H            2.050600       15.366764       40.408960
  H            0.988537       16.234643       39.284768
  H            3.128371       17.475946       41.092965
  H            1.381562       17.749234       41.202826
  H            2.855811       19.508684       39.811020
  H            1.335248       18.916111       39.074716
  O           37.697842       14.582381       27.751691
  S           37.037680       15.866319       27.734733
  O           36.719708       16.581608       28.955371
  C           37.938147       16.951628       26.644658
  C           36.896442       17.479252       25.661619
  C           35.948101       16.312993       25.381820
  C           35.565526       15.753451       26.734872
  H           38.415857       17.751041       27.218446
  H           38.697164       16.361005       26.125759
  H           37.364399       17.848073       24.742659
  H           36.337676       18.308019       26.113531
  H           36.478054       15.548017       24.789907
  H           35.072118       16.625500       24.811651
  H           35.232885       14.711730       26.687241
  H           34.792918       16.366872       27.209099
  O           29.229845       21.896309       27.906893
  S           29.883432       23.079077       27.398481
  O           31.320482       23.255744       27.478324
  C           29.360625       23.334987       25.713790
  C           28.844490       24.770895       25.672893
  C           28.133392       25.004270       27.006188
  C           29.088394       24.523678       28.077263
  H           30.198370       23.170992       25.029839
  H           28.557091       22.627497       25.494723
  H           28.171589       24.929998       24.823547
  H           29.683902       25.470369       25.575814
  H           27.204195       24.410653       27.030928
  H           27.861885       26.051373       27.147466
  H           28.583512       24.259969       29.011957
  H           29.864838       25.269621       28.274252
  O           27.115098        9.937785       29.967035
  S           26.900167       10.048671       28.543621
  O           27.283170       11.233127       27.799931
  C           27.602357        8.614601       27.751553
  C           26.471087        8.034999       26.906454
  C           25.192193        8.223192       27.723041
  C           25.197218        9.666480       28.178117
  H           28.469622        8.902513       27.150339
  H           27.905971        7.909616       28.529380
  H           26.647803        6.980091       26.670995
  H           26.388135        8.584044       25.960427
  H           25.216070        7.549151       28.595680
  H           24.298449        7.985240       27.144508
  H           24.583639        9.835189       29.068711
  H           24.871589       10.332963       27.373215
  O           11.488973        9.672892        6.899926
  S           10.769640       10.912619        7.073808
  O           10.651798       11.887337        6.006691
  C            9.143324       10.540404        7.701146
  C            8.998334       11.394618        8.957807
  C           10.372145       11.398594        9.628945
  C           11.367065       11.734447        8.539203
  H            8.385878       10.772392        6.946853
  H            9.108466        9.476650        7.948961
  H            8.224998       10.997799        9.624130
  H            8.718152       12.419825        8.686238
  H           10.579645       10.395341       10.037391
  H           10.422211       12.109743       10.454694
  H           12.380894       11.389800        8.766072
  H           11.378983       12.810023        8.336488
  O           26.017014       41.200625        7.329565
  S           25.315532       40.242540        8.150902
  O           25.472960       40.206587        9.591951
  C           23.578621       40.325362        7.759393
  C           23.178683       38.890428        7.426353
  C           24.363851       38.283159        6.675087
  C           25.589931       38.604477        7.501937
  H           23.019580       40.730165        8.607984
  H           23.455691       40.974377        6.888837
  H           22.262489       38.859418        6.827081
  H           22.999143       38.325466        8.349328
  H           24.442261       38.752709        5.680213
  H           24.247148       37.208731        6.526476
  H           26.514737       38.591507        6.916561
  H           25.680662       37.920429        8.351612
  O           12.727791        1.000003       14.746106
  S           12.358762        2.014637       13.787495
  O           11.148877        1.916739       12.994214
  C           12.392222        3.600535       14.600397
  C           13.296778        4.471549       13.732634
  C           14.417941        3.557421       13.237494
  C           13.737229        2.318228       12.697834
  H           11.378465        4.002643       14.684685
  H           12.822896        3.464801       15.595534
  H           13.690650        5.324380       14.295700
  H           12.734382        4.862006       12.875574
  H           15.072205        3.293347       14.085199
  H           15.035897        4.041189       12.479735
  H           14.393910        1.442633       12.683601
  H           13.336255        2.495891       11.694960
  O           25.761214        8.918901       19.425024
  S           25.175701        9.703787       18.364021
  O           25.547015        9.514465       16.975142
  C           23.401255        9.614884       18.506981
  C           22.932961       11.067353       18.537532
  C           23.982093       11.834528       19.342868
  C           25.323358       11.434441       18.767423
  H           22.982446        9.057017       17.664435
  H           23.159469        9.109475       19.445225
  H           21.936831       11.157120       18.983811
  H           22.884955       11.469266       17.517992
  H           23.917812       11.534168       20.402138
  H           23.827234       12.913293       19.294027
  H           26.149513       11.578398       19.470874
  H           25.529620       11.976451       17.839101
  O           36.750468        3.508760       14.167744
  S           35.950422        2.318113       14.331717
  O           36.461542        1.000000       14.009174
  C           35.299451        2.297421       15.990876
  C           33.791956        2.126694       15.822919
  C           33.407467        2.942887       14.588497
  C           34.386895        2.546115       13.505219
  H           35.752357        1.482964       16.563621
  H           35.531354        3.256602       16.460337
  H           33.249763        2.462300       16.713366
  H           33.548690        1.070122       15.656255
  H           33.508259        4.017026       14.817553
  H           32.375060        2.763972       14.284808
  H           34.491364        3.306703       12.725031
  H           34.106231        1.589393       13.053544
  O           37.649364       29.975107       16.161357
  S           38.885045       30.690176       15.946028
  O           39.611156       31.312583       17.036015
  C           39.997558       29.636680       15.035280
  C           40.426299       30.464164       13.826416
  C           39.191571       31.255961       13.394787
  C           38.645588       31.894863       14.653321
  H           40.842989       29.346310       15.665702
  H           39.445030       28.747857       14.720787
  H           40.799931       29.827000       13.017762
  H           41.227930       31.157381       14.109506
  H           38.447715       30.563562       12.966227
  H           39.428438       32.000834       12.633763
  H           37.582941       32.146206       14.577781
  H           39.218693       32.788371       14.920330
  O           26.144181        7.295399       30.573828
  S           26.119905        5.964527       30.014551
  O           26.426702        5.712798       28.619844
  C           27.130407        4.904767       31.030816
  C           26.228258        3.729151       31.396815
  C           24.832621        4.315873       31.610714
  C           24.560970        5.193475       30.408125
  H           28.022592        4.592977       30.480096
  H           27.420499        5.463899       31.923799
  H           26.589575        3.211146       32.291589
  H           26.200978        3.004621       30.573643
  H           24.830855        4.922040       32.532103
  H           24.074930        3.539124       31.723264
  H           23.808942        5.964396       30.603661
  H           24.258830        4.593024       29.544256
  O           31.092972       38.377598        5.412906
  S           30.278051       37.952994        4.299256
  O           28.870601       37.640143        4.453882
  C           30.467777       39.132633        2.976586
  C           30.867677       38.302509        1.759674
  C           31.790951       37.201380        2.282053
  C           31.081461       36.592776        3.472190
  H           29.533230       39.679687        2.822139
  H           31.265103       39.827695        3.251103
  H           31.362802       38.917865        1.000933
  H           29.978377       37.851386        1.302580
  H           32.747912       37.649466        2.598035
  H           32.010715       36.454700        1.517677
  H           31.764431       36.092735        4.166172
  H           30.304055       35.892857        3.149928
  O           40.802343       36.856026        5.541419
  S           40.338594       35.499710        5.368378
  O           40.879592       34.628954        4.342803
  C           40.425912       34.666407        6.941585
  C           39.027659       34.097013        7.166485
  C           38.052030       35.139353        6.619243
  C           38.560009       35.501944        5.240590
  H           41.195565       33.889610        6.914754
  H           40.670919       35.407060        7.706834
  H           38.845361       33.891229        8.226636
  H           38.910336       33.156784        6.613760
  H           38.063429       36.026582        7.274297
  H           37.028140       34.764267        6.586663
  H           38.217169       36.485658        4.904632
  H           38.277878       34.741352        4.505742
  O           34.879513       40.390691       15.655607
  S           34.714502       39.411266       14.607705
  O           34.218196       38.075691       14.877189
  C           33.743657       40.137841       13.301356
  C           34.573332       39.941911       12.035200
  C           36.032072       40.137934       12.449266
  C           36.233391       39.283886       13.682260
  H           32.766343       39.650184       13.241801
  H           33.616664       41.200696       13.521385
  H           34.278441       40.646960       11.250696
  H           34.434087       38.925424       11.647042
  H           36.201276       41.200655       12.690915
  H           36.724219       39.864933       11.651454
  H           37.070478       39.620153       14.302187
  H           36.372098       38.232094       13.412830
  O           22.277020       28.424948       34.359236
  S           23.449577       29.149167       34.789604
  O           24.375551       28.601535       35.761906
  C           24.360653       29.660951       33.345645
  C           24.548997       31.166838       33.509144
  C           23.256440       31.690492       34.135949
  C           22.967355       30.784192       35.312915
  H           25.311526       29.123197       33.289413
  H           23.754762       29.439237       32.463637
  H           24.756415       31.650584       32.548692
  H           25.392528       31.370378       34.180208
  H           22.441328       31.624561       33.395919
  H           23.343304       32.734107       34.441599
  H           21.911073       30.781351       35.599899
  H           23.584221       31.053118       36.176197
  O           10.287475       21.148251       16.878995
  S            9.895263       22.432911       17.408540
  O            9.736294       23.596926       16.558541
  C            8.415918       22.217512       18.379179
  C            8.740684       22.832121       19.738106
  C           10.203197       22.487434       20.021030
  C           10.967963       22.856750       18.768458
  H            7.568924       22.706684       17.889473
  H            8.223124       21.146051       18.474065
  H            8.077065       22.447526       20.519897
  H            8.620349       23.921686       19.697283
  H           10.290292       21.405153       20.214635
  H           10.585427       23.012935       20.897300
  H           11.914793       22.316153       18.671659
  H           11.151698       23.934892       18.724300
  O           28.337477       14.962395       16.810397
  S           29.275180       15.905304       16.248050
  O           30.525387       16.229749       16.907155
  C           29.613938       15.430857       14.563668
  C           29.332911       16.681883       13.735503
  C           28.119753       17.353478       14.379714
  C           28.419182       17.421094       15.861595
  H           30.648685       15.089069       14.468909
  H           28.928900       14.623878       14.292179
  H           29.145877       16.432789       12.685518
  H           30.193645       17.360789       13.774553
  H           27.224442       16.734874       14.200421
  H           27.928904       18.342470       13.960702
  H           27.516803       17.500211       16.476049
  H           29.094608       18.252130       16.088042
  O           10.260239       17.084371       37.181145
  S           10.354564       16.437375       35.893862
  O            9.577332       16.881709       34.753169
  C           12.072720       16.352874       35.427170
  C           12.325768       14.880939       35.112092
  C           11.505813       14.082912       36.126305
  C           10.116543       14.682560       36.102835
  H           12.262952       17.003997       34.569061
  H           12.674281       16.675990       36.280353
  H           13.391575       14.636340       35.173141
  H           11.982433       14.648601       34.096494
  H           11.953554       14.199531       37.127468
  H           11.489867       13.017538       35.892160
  H            9.555316       14.495145       37.023704
  H            9.546544       14.318871       35.242061
  O           26.176866       11.688208        9.437821
  S           26.028649       12.049504       10.827820
  O           24.753429       11.959107       11.512174
  C           27.258209       11.173005       11.774884
  C           27.991924       12.252148       12.566724
  C           28.093873       13.463459       11.639291
  C           26.703289       13.680285       11.082998
  H           26.778965       10.431795       12.420974
  H           27.936022       10.675684       11.076713
  H           28.979825       11.908169       12.891115
  H           27.416052       12.520432       13.460982
  H           28.799302       13.236920       10.822314
  H           28.462866       14.348000       12.160377
  H           26.703319       14.229971       10.136454
  H           26.065850       14.194611       11.809111
  O            6.290489       13.390094       29.310567
  S            7.513745       12.708892       28.958134
  O            7.528116       11.314492       28.560466
  C            8.362865       13.672868       27.722519
  C            9.768752       13.880881       28.279396
  C            9.603392       14.076213       29.786812
  C            8.711220       12.948111       30.257568
  H            8.365100       13.142255       26.765991
  H            7.841988       14.627770       27.617402
  H           10.260589       14.741001       27.812717
  H           10.384760       12.993551       28.088398
  H            9.118710       15.048691       29.975941
  H           10.562261       14.076780       30.307071
  H            8.194869       13.175507       31.195530
  H            9.277917       12.017691       30.363743
  O           33.847203       22.171064       33.128163
  S           32.807634       21.218388       32.817833
  O           32.943441       20.258988       31.739034
  C           32.369173       20.351865       34.312454
  C           30.856173       20.512717       34.434351
  C           30.539242       21.926916       33.947120
  C           31.260287       22.083583       32.625852
  H           32.675220       19.303908       34.244484
  H           32.879389       20.835257       35.149241
  H           30.518998       20.355924       35.464511
  H           30.346781       19.780430       33.795934
  H           30.922927       22.657570       34.678783
  H           29.466055       22.093314       33.843774
  H           31.453894       23.129294       32.366803
  H           30.705773       21.598760       31.816186
  O            5.428009       10.837136       24.248957
  S            6.227319       10.456066       23.108567
  O            5.667715       10.370920       21.773541
  C            7.678923       11.489432       23.063842
  C            8.854834       10.518263       23.000881
  C            8.475138        9.334028       23.890385
  C            7.077109        8.931504       23.473626
  H            7.639976       12.157277       22.198413
  H            7.708871       12.075720       23.985562
  H            9.783628       10.992557       23.335376
  H            9.003020       10.172316       21.970512
  H            8.479691        9.656052       24.945221
  H            9.179525        8.506694       23.793133
  H            6.538032        8.388954       24.256656
  H            7.097606        8.333792       22.556881
  O           21.684717       30.227217       38.788692
  S           22.226514       30.972709       39.900131
  O           21.520723       31.091140       41.161294
  C           23.883322       30.395774       40.214989
  C           24.750965       31.651408       40.193079
  C           24.175826       32.545408       39.094089
  C           22.684144       32.603458       39.342518
  H           23.924922       29.874167       41.175559
  H           24.166335       29.714510       39.408774
  H           25.802264       31.407905       40.006058
  H           24.689525       32.168723       41.158434
  H           24.380211       32.089324       38.110924
  H           24.624960       33.539571       39.098335
  H           22.111765       32.858834       38.445152
  H           22.447082       33.308738       40.145314
  O           33.433737       13.385412        4.572089
  S           32.399674       12.422767        4.274388
  O           30.993310       12.727684        4.452898
  C           32.654770       11.811238        2.619710
  C           32.692520       10.291793        2.760290
  C           33.418858       10.005256        4.074873
  C           32.766717       10.892502        5.113000
  H           31.848662       12.151623        1.963335
  H           33.613875       12.191491        2.259536
  H           33.198868        9.823850        1.909326
  H           31.672001        9.892429        2.808754
  H           34.484512       10.267633        3.965603
  H           33.363433        8.951547        4.351867
  H           33.414804       11.090989        5.972469
  H           31.819182       10.464768        5.455519
  O           21.526995       26.391165        7.948962
  S           22.813858       25.740702        7.874922
  O           23.419504       25.380365        6.607622
  C           23.983751       26.689980        8.827405
  C           24.608265       25.690734        9.797657
  C           23.481595       24.746236       10.217584
  C           22.806386       24.307738        8.936174
  H           24.723372       27.150366        8.165963
  H           23.434603       27.464620        9.368302
  H           25.053585       26.196437       10.661054
  H           25.398583       25.120371        9.294284
  H           22.767705       25.293665       10.855615
  H           23.853023       23.895133       10.790091
  H           21.776606       23.970282        9.090373
  H           23.382397       23.521402        8.438191
  O            1.025394        7.015969       30.358269
  S            1.710662        7.283563       29.115931
  O            1.000046        7.398395       27.857147
  C            2.738371        8.723310       29.334891
  C            4.133417        8.284514       28.897620
  C            4.291444        6.839282       29.371048
  C            3.042350        6.114098       28.919304
  H            2.354187        9.555326       28.737689
  H            2.730032        8.990482       30.394490
  H            4.907634        8.934171       29.319559
  H            4.215789        8.325069       27.804519
  H            4.363452        6.823477       30.471486
  H            5.194553        6.374585       28.972864
  H            2.833028        5.216475       29.509692
  H            3.102284        5.852856       27.858050
  O           16.349344       16.104300       27.174582
  S           17.642478       16.018769       26.538116
  O           18.855062       16.455117       27.202900
  C           17.873105       14.353457       25.946046
  C           18.224195       14.503447       24.468163
  C           17.373280       15.661196       23.945323
  C           17.556611       16.792361       24.933783
  H           18.663224       13.856432       26.516290
  H           16.930409       13.814356       26.068092
  H           18.030129       13.578281       23.915075
  H           19.287635       14.748247       24.356504
  H           16.315642       15.349899       23.915403
  H           17.660694       15.956857       22.935334
  H           16.731891       17.511835       24.916639
  H           18.504535       17.312541       24.763627
  O           11.450535       18.141143       20.069480
  S           11.151230       17.855567       18.686200
  O           11.682984       18.661193       17.604116
  C           11.521991       16.141257       18.368906
  C           10.243978       15.564582       17.765558
  C            9.085669       16.235942       18.504067
  C            9.384516       17.719378       18.486515
  H           12.378510       16.059337       17.693507
  H           11.752384       15.659865       19.322521
  H           10.209871       14.474670       17.867679
  H           10.189184       15.806669       16.697059
  H            9.054480       15.866497       19.542787
  H            8.122291       16.012554       18.043523
  H            8.880871       18.265623       19.290292
  H            9.123553       18.160930       17.519546
  O           31.294587       37.932837        9.614965
  S           30.017838       37.449685       10.085153
  O           28.819260       37.534587        9.273426
  C           30.219911       35.770144       10.646677
  C           29.665799       35.758501       12.068903
  C           30.067972       37.095644       12.691883
  C           29.678677       38.157471       11.686312
  H           29.685995       35.083767        9.983111
  H           31.287252       35.535674       10.644214
  H           30.056610       34.911971       12.643492
  H           28.572127       35.676762       12.046495
  H           31.158814       37.107163       12.854152
  H           29.587265       37.258320       13.657573
  H           30.245981       39.086002       11.805042
  H           28.606203       38.370637       11.735890
  O           13.009590       14.922754       24.320262
  S           13.729390       15.371970       25.488463
  O           15.111563       15.003715       25.726554
  C           13.573598       17.143871       25.602890
  C           13.045186       17.405039       27.010893
  C           12.059951       16.274897       27.310713
  C           12.774350       14.991748       26.945525
  H           14.541896       17.620016       25.423492
  H           12.852137       17.472208       24.850634
  H           12.566223       18.387365       27.082525
  H           13.869548       17.376474       27.734019
  H           11.160953       16.401207       26.684415
  H           11.740403       16.276456       28.353779
  H           12.087298       14.167478       26.729564
  H           13.473194       14.693657       27.733470
  O           26.111973       32.377666       16.448732
  S           24.690607       32.533297       16.648974
  O           23.981921       31.827174       17.698667
  C           24.323072       34.273172       16.770436
  C           23.231802       34.521011       15.732359
  C           23.575749       33.634234       14.535226
  C           23.848680       32.257605       15.101442
  H           23.999781       34.520406       17.785748
  H           25.229028       34.831412       16.521815
  H           23.180981       35.577991       15.450030
  H           22.254243       34.230930       16.136749
  H           24.479088       34.027600       14.039603
  H           22.773589       33.615182       13.796122
  H           24.475153       31.643516       14.446822
  H           22.914444       31.730682       15.319742
  O           32.163917       16.571473        9.329883
  S           31.898415       15.295872        9.951935
  O           31.151478       15.186806       11.190035
  C           31.168482       14.214642        8.737382
  C           32.035585       12.958542        8.753030
  C           33.473166       13.437893        8.956457
  C           33.430248       14.399488       10.124230
  H           30.125766       14.007483        8.994924
  H           31.220447       14.709855        7.764621
  H           31.928441       12.386989        7.824942
  H           31.742547       12.308796        9.586852
  H           33.814186       13.959556        8.046527
  H           34.158684       12.609452        9.140436
  H           34.268877       15.102894       10.128769
  H           33.395225       13.859901       11.075923
  O           28.061470       30.523176        9.283074
  S           28.919889       29.864683        8.326986
  O           28.626131       29.861458        6.906987
  C           30.588335       30.441758        8.572492
  C           31.423403       29.176236        8.748601
  C           30.555167       28.202570        9.546061
  C           29.207374       28.186869        8.858015
  H           30.910257       31.040578        7.715590
  H           30.608958       31.049655        9.480367
  H           32.367458       29.388183        9.261765
  H           31.660038       28.741706        7.769577
  H           30.450231       28.572546       10.579747
  H           30.995947       27.205803        9.593690
  H           28.395122       27.866242        9.517974
  H           29.229826       27.554095        7.965159
  O            8.456793       21.343485       13.357696
  S            7.695393       21.352455       14.584395
  O            8.336356       21.359239       15.885095
  C            6.518994       22.689495       14.510863
  C            5.166908       22.044096       14.802794
  C            5.195179       20.674382       14.123908
  C            6.499839       20.030193       14.539939
  H            6.780544       23.462506       15.239249
  H            6.539695       23.106990       13.501175
  H            4.341047       22.660857       14.432579
  H            5.036044       21.916414       15.884400
  H            5.170269       20.810833       13.029759
  H            4.335932       20.062202       14.401450
  H            6.834632       19.255635       13.842750
  H            6.427179       19.612729       15.549169
  O            7.141679        8.999363       26.563296
  S            8.034971        8.990335       27.697557
  O            7.554610        9.170780       29.053799
  C            9.026363        7.510814       27.625740
  C           10.470716        7.997216       27.710343
  C           10.527022        9.300226       26.912348
  C            9.366491       10.139003       27.402064
  H            8.761440        6.839011       28.447322
  H            8.837774        7.019934       26.667788
  H           11.167845        7.251147       27.314247
  H           10.741701        8.193173       28.755076
  H           10.407097        9.074449       25.839482
  H           11.479831        9.816386       27.038177
  H            9.047322       10.891967       26.674550
  H            9.606250       10.623096       28.354046
  O           34.368274       29.001918       29.193989
  S           32.951657       28.824621       29.409311
  O           32.149030       29.820394       30.092631
  C           32.185974       28.434953       27.847616
  C           31.410090       27.144486       28.097816
  C           32.270545       26.309217       29.046364
  C           32.670549       27.237712       30.172461
  H           31.539491       29.257700       27.528798
  H           32.976674       28.275509       27.110343
  H           31.207372       26.611944       27.162506
  H           30.448297       27.369597       28.574868
  H           33.166163       25.956067       28.508264
  H           31.738301       25.431699       29.416200
  H           33.578480       26.913428       30.690729
  H           31.855160       27.354491       30.893296
  O           10.489044       10.146469       36.986856
  S           10.289786       10.743020       38.286480
  O           11.026023       11.917377       38.712555
  C            8.546580       11.037952       38.512862
  C            8.198151       10.358508       39.834547
  C            9.028522        9.075603       39.883927
  C           10.444546        9.482455       39.538170
  H            8.344764       12.112911       38.528112
  H            8.010857       10.570246       37.683132
  H            7.125720       10.147881       39.905460
  H            8.472370       11.007293       40.675488
  H            8.643214        8.364576       39.134008
  H            8.974513        8.590396       40.859507
  H           11.044549        8.652644       39.151504
  H           10.946211        9.930355       40.401778
  O           38.857653       19.499848        3.450647
  S           39.925765       18.529507        3.404016
  O           41.200980       18.821811        2.778647
  C           40.215056       17.926070        5.056037
  C           40.123407       16.406510        4.944509
  C           39.009148       16.121481        3.937045
  C           39.296786       16.999443        2.738443
  H           41.192395       18.261922        5.414525
  H           39.426528       18.315749        5.704552
  H           39.916119       15.945926        5.916309
  H           41.070685       15.998309        4.571231
  H           38.037871       16.393302        4.383292
  H           38.964784       15.066358        3.663461
  H           38.407044       17.200372        2.133392
  H           40.079747       16.562446        2.110664
  O           38.787554       21.895167       23.127189
  S           37.444107       21.857202       22.599640
  O           37.144178       22.247929       21.235794
  C           36.762602       20.238219       22.902037
  C           35.442804       20.492698       23.625415
  C           35.689990       21.682788       24.552984
  C           36.357749       22.741805       23.702820
  H           36.626636       19.703750       21.957392
  H           37.457133       19.690046       23.543389
  H           35.114973       19.608454       24.182317
  H           34.659095       20.746803       22.901171
  H           36.361632       21.372343       25.370860
  H           34.766483       22.049467       25.003297
  H           36.937542       23.459111       24.292236
  H           35.623144       23.274507       23.090704
  O            1.065390       33.326467       28.498274
  S            2.295949       33.432907       29.245934
  O            2.827887       32.321253       30.010109
  C            3.566932       34.050447       28.159542
  C            4.147575       35.264914       28.879143
  C            2.968027       35.956936       29.562935
  C            2.217160       34.869125       30.299865
  H            4.315690       33.274535       27.975633
  H            3.097248       34.345317       27.217922
  H            4.659819       35.936055       28.181522
  H            4.874364       34.943047       29.635106
  H            2.320373       36.413381       28.795730
  H            3.293765       36.750522       30.236890
  H            1.170817       35.127360       30.491128
  H            2.714231       34.618407       31.242288
  O           12.505283        9.047083       19.084066
  S           11.562374        9.975114       19.662237
  O           10.861208        9.686191       20.898194
  C           12.348729       11.568684       19.800740
  C           11.405168       12.538807       19.094727
  C           10.841923       11.782589       17.891111
  C           10.370656       10.446169       18.422231
  H           12.501452       11.823713       20.853420
  H           13.311445       11.519965       19.285955
  H           11.926094       13.452520       18.789334
  H           10.586278       12.824071       19.766548
  H           11.643018       11.635276       17.147508
  H           10.034372       12.331255       17.404359
  H           10.320452        9.673317       17.648745
  H            9.397472       10.540432       18.914296
  O           12.121031       20.251514       16.058272
  S           12.029755       19.054822       15.255653
  O           12.774285       17.853916       15.581533
  C           10.308744       18.634565       15.059428
  C           10.101526       18.506309       13.552606
  C           10.963287       19.594607       12.911686
  C           12.330733       19.471823       13.548250
  H           10.083614       17.707172       15.593993
  H            9.709239       19.453184       15.465206
  H            9.045734       18.616930       13.283225
  H           10.437465       17.520332       13.208667
  H           10.526758       20.582358       13.135715
  H           11.012176       19.491957       11.826710
  H           12.911675       20.397881       13.493265
  H           12.899973       18.651220       13.100281
  O           23.379846        5.322132       26.698163
  S           22.633009        5.318169       25.462518
  O           21.585546        4.349752       25.202347
  C           21.989427        6.956947       25.184652
  C           22.458193        7.334115       23.781833
  C           23.865331        6.754403       23.634537
  C           23.772440        5.314500       24.090882
  H           20.899397        6.954591       25.275927
  H           22.424207        7.625451       25.931825
  H           22.451830        8.419609       23.636362
  H           21.795423        6.887652       23.030363
  H           24.558809        7.315082       24.283480
  H           24.234288        6.830603       22.610738
  H           24.735243        4.906462       24.414324
  H           23.347201        4.680739       23.306268
  O           39.155503       14.081488       10.098025
  S           38.534528       13.324660        9.036799
  O           38.575563       13.764264        7.655580
  C           39.114891       11.641794        9.127024
  C           37.850142       10.788480        9.173564
  C           36.844971       11.565765       10.024009
  C           36.842332       12.977653        9.479246
  H           39.743560       11.412710        8.261694
  H           39.692989       11.529164       10.047522
  H           38.051810        9.796998        9.592843
  H           37.449425       10.653245        8.161419
  H           37.180304       11.564109       11.074699
  H           35.850273       11.118898        9.992615
  H           36.494710       13.715847       10.208854
  H           36.239180       13.045793        8.568386
  O           19.586736       10.308030       28.746156
  S           20.886767        9.688395       28.643343
  O           21.722479        9.849072       27.469261
  C           21.833695       10.115451       30.091774
  C           22.306016        8.781463       30.663865
  C           21.154136        7.798143       30.453968
  C           20.735814        7.949337       29.007473
  H           22.664679       10.772374       29.818979
  H           21.170645       10.626010       30.794550
  H           22.571426        8.871826       31.722587
  H           23.192604        8.431434       30.120965
  H           20.319181        8.069079       31.121682
  H           21.444400        6.772319       30.685340
  H           19.706895        7.623778       28.824616
  H           21.417929        7.409461       28.343129
  O           41.200380       30.210854        8.683000
  S           40.610944       28.893449        8.723103
  O           41.207597       27.808734        9.478152
  C           38.898830       29.053232        9.192288
  C           38.119618       28.319852        8.103764
  C           38.847099       28.612210        6.791095
  C           40.311292       28.336193        7.055958
  H           38.738068       28.623047       10.185060
  H           38.645403       30.116194        9.201583
  H           37.075656       28.649084        8.068409
  H           38.128022       27.240072        8.296906
  H           38.702167       29.672411        6.523947
  H           38.464606       28.007410        5.967678
  H           40.976748       28.865423        6.366622
  H           40.520905       27.262446        7.020893
  O           25.974403       40.539600       24.574810
  S           25.113054       39.586897       23.915238
  O           23.893029       39.991884       23.244250
  C           26.098364       38.616477       22.790761
  C           25.812954       37.164605       23.165609
  C           25.682749       37.137417       24.688799
  C           24.734004       38.261079       25.045825
  H           25.824463       38.844034       21.756500
  H           27.149837       38.861356       22.959988
  H           26.608557       36.497650       22.816774
  H           24.871008       36.835915       22.709538
  H           26.672463       37.317097       25.141106
  H           25.322266       36.173829       25.051633
  H           24.855296       38.610838       26.075902
  H           23.693884       37.965499       24.875876
  O           14.596503       21.498909       29.410788
  S           13.699722       20.547998       30.024102
  O           12.598613       19.950606       29.293773
  C           14.671271       19.252910       30.769647
  C           14.194399       19.183648       32.217990
  C           13.922548       20.626523       32.644614
  C           13.074607       21.232534       31.547368
  H           14.520336       18.311707       30.233126
  H           15.723292       19.544623       30.721098
  H           14.940348       18.706210       32.862281
  H           13.267903       18.599871       32.282094
  H           14.880245       21.167181       32.727706
  H           13.426280       20.679923       33.614648
  H           13.138503       22.324696       31.512719
  H           12.028303       20.926403       31.645510
  O           31.328877       31.062467       18.843553
  S           31.786743       30.413524       20.049302
  O           32.226796       31.167954       21.206837
  C           30.552414       29.233931       20.561156
  C           31.304025       27.913918       20.711311
  C           32.336354       27.882872       19.583866
  C           33.043444       29.220081       19.629664
  H           30.084737       29.558649       21.495146
  H           29.799401       29.164066       19.772303
  H           30.623124       27.057714       20.658508
  H           31.816276       27.880188       21.680723
  H           31.816577       27.760322       18.618872
  H           33.035487       27.052416       19.691824
  H           33.504026       29.492113       18.674696
  H           33.797985       29.238153       20.422407
  O           21.789100       23.930602        6.890872
  S           22.041305       22.853963        5.962519
  O           21.384735       22.784637        4.671469
  C           23.802156       22.711264        5.725789
  C           24.124379       21.248758        6.020998
  C           23.216731       20.840259        7.181645
  C           21.824427       21.295661        6.801779
  H           24.070426       23.002061        4.706001
  H           24.297362       23.370127        6.443334
  H           25.182490       21.114678        6.269842
  H           23.901525       20.629314        5.143543
  H           23.547737       21.354085        8.099697
  H           23.252815       19.766532        7.371139
  H           21.169299       21.433007        7.667830
  H           21.362410       20.598487        6.095671
  O           28.307182        4.389480       22.077360
  S           29.352346        4.955718       22.896875
  O           30.737527        4.975156       22.468393
  C           28.869164        6.604445       23.371464
  C           28.984890        6.628633       24.893280
  C           28.522354        5.253503       25.375854
  C           29.265848        4.243234       24.529230
  H           29.518632        7.341174       22.889882
  H           27.833717        6.759884       23.058593
  H           28.381185        7.432641       25.327575
  H           30.028622        6.790913       25.189234
  H           27.435461        5.158681       25.214386
  H           28.713570        5.107512       26.439914
  H           28.760792        3.273374       24.480346
  H           30.290923        4.108483       24.888625
  O           11.920452       34.288298       23.212617
  S           11.786684       33.303304       22.165480
  O           11.631295       33.679509       20.773710
  C           13.131575       32.141971       22.305388
  C           12.465747       30.769603       22.361770
  C           11.188031       30.951308       23.181663
  C           10.488498       32.160737       22.600168
  H           13.808829       32.244627       21.452576
  H           13.667963       32.351408       23.234164
  H           13.128926       30.021364       22.808797
  H           12.209163       30.433449       21.349612
  H           11.456003       31.136960       24.235287
  H           10.553227       30.064598       23.152173
  H            9.801469       32.636982       23.306766
  H            9.952585       31.900424       21.681945
  O           27.138213       15.499603       40.120402
  S           27.042858       14.336184       39.270718
  O           27.615386       14.310043       37.938717
  C           27.628703       12.920397       40.181396
  C           26.502534       11.894433       40.086317
  C           25.197947       12.687814       40.166307
  C           25.338363       13.821429       39.173634
  H           28.565494       12.555782       39.750143
  H           27.789798       13.224667       41.218540
  H           26.571426       11.149624       40.886326
  H           26.554094       11.366260       39.126278
  H           25.078643       13.088530       41.186891
  H           24.327421       12.066969       39.949887
  H           24.684996       14.669994       39.399795
  H           25.152948       13.474060       38.152333
  O            0.999958       24.930010       19.111681
  S            1.784507       24.798707       17.906757
  O            1.513382       25.593224       16.724414
  C            3.507612       24.962156       18.332425
  C            4.177585       23.716940       17.757557
  C            3.184345       22.571368       17.954890
  C            1.855105       23.079231       17.439723
  H            3.913413       25.887657       17.913767
  H            3.589767       24.978925       19.421998
  H            5.132968       23.512256       18.252376
  H            4.373115       23.854539       16.686980
  H            3.110734       22.335704       19.029806
  H            3.498100       21.663865       17.437110
  H            0.999955       22.546912       17.868039
  H            1.812405       23.028784       16.347143
  O            3.934980       38.840210        5.426592
  S            5.046897       38.276176        6.154675
  O            5.097442       38.282769        7.603848
  C            5.319919       36.613732        5.572661
  C            6.794874       36.567793        5.182405
  C            7.112149       37.928719        4.561907
  C            6.567050       38.962213        5.523654
  H            5.071353       35.893678        6.357668
  H            4.682512       36.448599        4.700513
  H            6.998581       35.748813        4.484354
  H            7.415885       36.415652        6.073751
  H            6.603284       38.010745        3.586854
  H            8.181316       38.061015        4.390214
  H            6.364445       39.925525        5.045028
  H            7.244778       39.105802        6.371101
  O           33.549986       38.879220       24.211670
  S           34.083652       37.854510       23.345776
  O           34.370996       36.516987       23.826573
  C           33.049055       37.740592       21.898837
  C           34.003439       37.888026       20.716757
  C           35.049305       38.919142       21.141922
  C           35.526908       38.487553       22.511530
  H           32.515916       36.785503       21.890604
  H           32.333593       38.566195       21.925144
  H           33.473071       38.201208       19.811149
  H           34.494777       36.929866       20.507430
  H           34.576037       39.913645       21.200078
  H           35.872639       38.984807       20.429246
  H           35.955788       39.310056       23.092608
  H           36.252278       37.671405       22.435099
  O           19.601805       21.560397        5.074225
  S           18.480737       20.652418        5.132352
  O           17.124023       21.120887        5.338664
  C           18.520658       19.610243        3.686919
  C           18.471957       18.183046        4.226027
  C           19.310861       18.183525        5.504323
  C           18.830911       19.366477        6.317018
  H           17.674844       19.840293        3.032569
  H           19.460059       19.793971        3.159690
  H           18.854585       17.465211        3.492672
  H           17.437824       17.905378        4.464290
  H           20.374348       18.309555        5.240672
  H           19.214837       17.248029        6.057249
  H           19.576866       19.721733        7.034962
  H           17.897998       19.131454        6.839070
  O           35.772988       27.347359       10.594527
  S           35.469738       26.025752       10.098551
  O           35.983226       25.545851        8.830196
  C           35.863712       24.839817       11.369513
  C           34.590750       24.017655       11.552590
  C           33.427104       24.997667       11.399930
  C           33.704062       25.779094       10.133887
  H           36.717337       24.228252       11.063224
  H           36.106765       25.387316       12.283499
  H           34.573229       23.519372       12.527734
  H           34.526104       23.245377       10.776247
  H           33.407469       25.676274       12.269129
  H           32.464402       24.486374       11.356515
  H           33.197219       26.748998       10.111641
  H           33.430949       25.198873        9.246839
  O           19.484660       29.813839       34.401684
  S           18.140078       30.075443       34.858044
  O           17.854298       30.446421       36.230416
  C           17.394463       31.271503       33.766944
  C           16.086912       30.630041       33.310068
  C           16.382944       29.139943       33.137515
  C           17.091600       28.706877       34.402608
  H           17.235886       32.216317       34.294845
  H           18.067249       31.426612       32.919890
  H           15.724546       31.079743       32.379499
  H           15.313094       30.765548       34.075668
  H           17.042645       28.999459       32.264899
  H           15.475512       28.559777       32.964095
  H           17.700526       27.807908       34.264174
  H           16.378190       28.548232       35.217456
  O            3.934587       29.202224       36.181345
  S            3.286114       29.978943       37.211292
  O            3.114961       29.473943       38.559765
  C            4.063872       31.580949       37.286583
  C            2.920451       32.583195       37.152457
  C            1.937931       31.974475       36.151500
  C            1.708522       30.549656       36.606980
  H            4.609818       31.691315       38.227998
  H            4.754298       31.664955       36.443697
  H            3.282930       33.561125       36.818149
  H            2.423021       32.719078       38.120651
  H            2.391193       31.984070       35.146084
  H            1.004788       32.537230       36.100021
  H            1.365095       29.893989       35.800594
  H            0.999654       30.513260       37.440215
  O           27.084653       22.414178        5.712524
  S           27.304087       23.826817        5.510285
  O           27.032335       24.471238        4.240020
  C           26.466466       24.720968        6.804845
  C           27.534776       25.621227        7.419781
  C           28.828622       24.806512        7.417872
  C           28.961892       24.239808        6.020988
  H           25.628241       25.288231        6.390006
  H           26.100212       23.997434        7.537346
  H           27.258135       25.936599        8.431467
  H           27.666001       26.522219        6.807985
  H           28.744112       23.989115        8.153481
  H           29.693768       25.411683        7.692445
  H           29.591833       23.345533        5.981645
  H           29.346320       24.993587        5.326631
  O           41.205456       20.038370       16.372052
  S           40.641791       19.412060       17.544493
  O           41.202272       18.200911       18.111660
  C           40.496885       20.640170       18.828139
  C           39.037866       20.578680       19.272417
  C           38.218863       20.328317       18.005787
  C           38.892183       19.173826       17.295864
  H           41.192773       20.418555       19.642465
  H           40.729641       21.615916       18.394612
  H           38.733081       21.503548       19.773642
  H           38.892593       19.748830       19.974944
  H           38.244220       21.231021       17.372633
  H           37.173893       20.110081       18.230534
  H           38.673950       19.146609       16.223608
  H           38.617821       18.218014       17.753301
  O           33.477574        3.539049       10.458559
  S           32.240341        3.356804       11.180115
  O           32.048337        2.259859       12.108848
  C           31.830960        4.886886       11.997584
  C           30.406655        5.205953       11.550983
  C           30.315597        4.778354       10.085832
  C           30.881846        3.376254       10.025206
  H           31.913855        4.769135       13.081910
  H           32.527151        5.655132       11.652163
  H           30.177144        6.269551       11.675820
  H           29.687176        4.631762       12.147602
  H           30.924212        5.461313        9.469751
  H           29.291807        4.817011        9.711054
  H           31.243356        3.104832        9.028341
  H           30.145699        2.640638       10.364407
  O            6.929701       16.073968       10.268107
  S            7.900245       16.735046        9.428094
  O            7.521846       17.774067        8.490038
  C            9.223552       17.338311       10.458594
  C           10.498085       16.770697        9.839500
  C           10.144734       15.363938        9.355793
  C            8.861490       15.505111        8.566139
  H            9.217950       18.431972       10.477949
  H            9.075156       16.947265       11.468179
  H           11.320740       16.753981       10.562313
  H           10.809044       17.386201        8.986412
  H            9.984046       14.709441       10.228841
  H           10.942580       14.925320        8.754830
  H            8.293324       14.571552        8.504849
  H            9.060285       15.883670        7.558532
  O            4.555194       11.149213        4.404320
  S            4.246365       10.337309        3.251048
  O            4.359938       10.849909        1.899366
  C            5.160536        8.811912        3.371274
  C            4.113583        7.710299        3.229012
  C            2.868311        8.211369        3.961151
  C            2.627774        9.618485        3.458791
  H            5.924641        8.767512        2.589819
  H            5.632513        8.773742        4.356149
  H            4.471595        6.762229        3.644332
  H            3.878095        7.548825        2.169874
  H            3.065269        8.223373        5.046261
  H            2.004845        7.567546        3.787893
  H            2.042723       10.226331        4.156171
  H            2.139942        9.607433        2.478996
  O           25.050178       15.780732        2.774879
  S           23.979745       15.959939        3.727064
  O           23.979567       17.048332        4.685240
  C           22.431405       15.964678        2.844102
  C           21.577897       14.904642        3.535295
  C           22.532056       13.770609        3.911262
  C           23.709669       14.427614        4.598119
  H           21.977786       16.959253        2.883481
  H           22.629786       15.686738        1.806030
  H           20.770906       14.553439        2.883434
  H           21.123581       15.319954        4.443266
  H           22.864962       13.256964        2.993797
  H           22.053483       13.028469        4.551806
  H           24.618812       13.819160        4.561485
  H           23.470783       14.673043        5.637733
  O           24.978441        2.788874        1.000000
  S           24.517743        3.320523        2.260836
  O           24.201703        2.461947        3.385853
  C           25.660165        4.579832        2.795640
  C           24.797849        5.811909        3.056974
  C           23.717175        5.810600        1.975336
  C           23.138905        4.412130        1.966048
  H           26.197442        4.247122        3.688466
  H           26.367153        4.766260        1.983475
  H           25.394006        6.730275        3.030483
  H           24.328980        5.740721        4.046112
  H           24.179352        6.037559        1.000000
  H           22.950195        6.563555        2.162154
  H           22.662642        4.153663        1.015012
  H           22.425807        4.276805        2.785364
  O           39.333492       33.550652       37.565848
  S           39.061649       33.551392       38.983840
  O           39.577863       34.582242       39.863370
  C           37.300694       33.413855       39.222840
  C           37.120140       32.225246       40.163323
  C           38.175555       31.197039       39.755046
  C           39.481491       31.955823       39.660297
  H           36.903036       34.343246       39.640693
  H           36.839254       33.214425       38.252530
  H           36.107850       31.812560       40.096553
  H           37.291366       32.536562       41.201139
  H           37.909224       30.774073       38.771904
  H           38.238811       30.371347       40.465209
  H           40.214737       31.464020       39.013319
  H           39.914066       32.118061       40.652596
  O           30.057719       35.766736       31.834158
  S           29.968959       34.642112       32.735238
  O           31.105721       33.782924       33.004065
  C           29.291924       35.209143       34.283495
  C           28.102348       34.292115       34.555283
  C           27.453085       34.025553       33.196900
  C           28.579362       33.627027       32.267988
  H           30.050903       35.155295       35.069339
  H           28.962999       36.243149       34.153731
  H           27.396694       34.749684       35.256841
  H           28.447526       33.346190       34.990460
  H           26.972091       34.950339       32.836603
  H           26.684947       33.253092       33.254934
  H           28.341237       33.793598       31.212692
  H           28.863902       32.581381       32.422134
  O            1.053188       35.457746       10.109828
  S            1.585093       36.413982        9.167868
  O            0.999981       36.604284        7.854807
  C            1.715385       37.995666        9.979225
  C            3.163856       38.429727        9.770845
  C            4.007068       37.158665        9.876660
  C            3.337025       36.138666        8.981761
  H            0.999978       38.701324        9.547090
  H            1.502166       37.852803       11.041452
  H            3.467524       39.178030       10.510661
  H            3.285396       38.870356        8.773661
  H            4.004689       36.807320       10.922103
  H            5.044657       37.330524        9.586879
  H            3.577819       35.106749        9.256108
  H            3.591535       36.310837        7.931199
  O           32.986115       14.806473       20.683564
  S           34.351275       15.262185       20.568395
  O           35.416289       14.388019       20.116422
  C           34.370177       16.752355       19.590625
  C           35.112325       17.777089       20.444461
  C           34.687668       17.512725       21.889307
  C           34.845017       16.022935       22.103705
  H           34.864435       16.568442       18.632302
  H           33.336117       17.063322       19.422640
  H           34.876458       18.801035       20.135592
  H           36.195648       17.634845       20.347106
  H           33.632162       17.805984       22.017001
  H           35.280309       18.088129       22.601899
  H           34.222968       15.641214       22.919453
  H           35.892376       15.760744       22.283693
  O           24.527068       11.737619       15.716161
  S           24.884433       12.888788       14.921365
  O           25.184120       12.781178       13.506689
  C           23.643914       14.146782       15.157080
  C           24.418758       15.394182       15.573627
  C           25.557540       14.906673       16.469902
  C           26.213724       13.764243       15.725269
  H           23.076444       14.294633       14.233707
  H           22.974838       13.820483       15.957122
  H           23.773988       16.110281       16.094178
  H           24.833886       15.892733       14.689085
  H           25.139469       14.547672       17.425274
  H           26.268746       15.702069       16.697125
  H           26.757191       13.080913       16.385422
  H           26.885586       14.138016       14.946170
  O           33.938044       28.693291        5.449914
  S           34.270308       27.771818        6.510616
  O           34.304742       28.182559        7.900870
  C           33.230031       26.332650        6.356937
  C           34.193104       25.148743        6.329472
  C           35.413230       25.612745        5.533360
  C           35.804646       26.953886        6.115023
  H           32.528558       26.283084        7.194779
  H           32.680637       26.407787        5.415278
  H           33.728639       24.265728        5.877744
  H           34.497309       24.886758        7.350317
  H           35.133272       25.725351        4.472538
  H           36.233158       24.895050        5.585619
  H           36.380028       27.570156        5.416993
  H           36.365444       26.829047        7.046700
  O           24.776829       24.243763       18.259729
  S           23.973177       25.431727       18.093946
  O           24.213383       26.634519       18.867439
  C           23.936679       25.853568       16.362554
  C           22.455025       25.965651       16.013215
  C           21.747337       24.868465       16.808928
  C           22.249674       24.995262       18.230821
  H           24.479808       26.787291       16.190299
  H           24.406718       25.040790       15.803398
  H           22.288437       25.854382       14.936476
  H           22.069712       26.947036       16.316065
  H           22.022866       23.884203       16.394546
  H           20.661544       24.959035       16.754599
  H           22.150100       24.067382       18.802856
  H           21.740491       25.809625       18.755841
  O           32.063071       25.312712       20.623661
  S           31.677329       24.383740       21.659428
  O           30.805810       23.255914       21.392668
  C           33.151486       23.797707       22.472096
  C           32.917437       24.062980       23.956937
  C           32.171675       25.395327       24.037497
  C           31.029909       25.293938       23.049423
  H           33.305474       22.736746       22.254958
  H           33.999139       24.380211       22.102810
  H           33.861514       24.094958       24.511189
  H           32.297813       23.267409       24.388715
  H           32.854270       26.211643       23.747509
  H           31.814815       25.604237       25.047006
  H           30.668997       26.270913       22.712730
  H           30.199033       24.716969       23.467576
  O           14.351498       24.930784       13.243850
  S           13.872500       25.024651       14.602655
  O           13.894261       26.273554       15.339179
  C           12.228605       24.339246       14.672138
  C           12.282825       23.291231       15.780572
  C           13.657581       22.630710       15.673055
  C           14.658107       23.762912       15.587814
  H           11.499259       25.128381       14.876635
  H           12.012282       23.873099       13.707715
  H           11.474518       22.559258       15.678814
  H           12.181670       23.773690       16.760521
  H           13.695968       22.019347       14.755906
  H           13.862963       21.973062       16.518878
  H           15.601007       23.464657       15.118683
  H           14.855561       24.187549       16.577155
  O           17.451250       29.869496       15.901919
  S           16.553410       30.985268       16.085046
  O           15.818133       31.567769       14.979260
  C           15.411305       30.584185       17.393376
  C           15.515369       31.744468       18.379688
  C           16.989407       32.149971       18.403725
  C           17.407594       32.286055       16.955691
  H           14.401530       30.466433       16.989657
  H           15.738144       29.650228       17.857166
  H           15.159891       31.456600       19.374810
  H           14.906701       32.588896       18.033616
  H           17.576290       31.356574       18.896157
  H           17.150442       33.074937       18.959248
  H           18.487139       32.177248       16.811320
  H           17.073321       33.241299       16.538715
  O           38.233616       33.819746       19.074401
  S           37.399837       33.754131       17.897495
  O           37.922705       33.343370       16.608859
  C           35.959821       32.774927       18.277649
  C           34.771302       33.653620       17.896571
  C           35.160548       35.082321       18.277493
  C           36.542167       35.305170       17.701588
  H           35.983602       31.835824       17.717274
  H           35.961294       32.568350       19.350739
  H           33.857377       33.334344       18.408727
  H           34.591710       33.596538       16.815928
  H           35.187835       35.170463       19.376532
  H           34.444136       35.815196       17.903667
  H           37.095450       36.098144       18.214588
  H           36.490268       35.524141       16.630393
