        1156
  Built with Packmol                                             
  O           23.716183       22.584480       25.454598
  S           24.568287       23.742203       25.162034
  O           23.994321       24.997185       25.641390
  N           25.085056       23.735893       23.662997
  S           25.867521       25.046358       23.234711
  O           26.461688       24.929873       21.898374
  O           26.804932       25.588608       24.222347
  C           24.485054       26.268005       23.053978
  F           23.270030       25.667272       22.887141
  F           24.658779       27.042204       21.938122
  F           24.385371       27.149031       24.087060
  C           26.143080       23.439249       26.091574
  F           27.118626       22.901054       25.318363
  F           25.950668       22.537698       27.109799
  F           26.649503       24.557254       26.691325
  O           16.130712        5.816462       15.457288
  S           17.261862        5.046055       14.929110
  O           18.461301        5.860660       14.750321
  N           16.840518        4.140251       13.697774
  S           18.050355        3.415535       12.973839
  O           17.600238        2.468591       11.947637
  O           19.079360        2.848850       13.850319
  C           18.826585        4.818080       12.042907
  F           17.972647        5.868990       11.865768
  F           19.183538        4.428933       10.779637
  F           19.971697        5.291269       12.607007
  C           17.625700        3.763691       16.217118
  F           17.061983        2.561571       15.940836
  F           17.114461        4.130252       17.438129
  F           18.960140        3.564190       16.430585
  O            5.101717       10.251592       25.278768
  S            6.531831       10.568445       25.198908
  O            7.149985       10.709446       26.515041
  N            6.826160       11.728701       24.159015
  S            8.328094       12.235791       24.151626
  O            8.588976       13.191790       23.069773
  O            9.358777       11.198073       24.246676
  C            8.397283       13.230154       25.714557
  F            7.160836       13.612304       26.150631
  F            9.086416       14.397490       25.521883
  F            9.035679       12.604743       26.741548
  C            7.309597        9.114445       24.352289
  F            7.495175        9.312941       23.023620
  F            6.508208        8.002615       24.442895
  F            8.506766        8.740609       24.893706
  O           10.282087       24.974866        9.078262
  S           11.359857       24.656102        8.135499
  O           11.025478       23.536981        7.258026
  N           12.773541       24.587431        8.850330
  S           13.952947       24.078711        7.921242
  O           15.262507       24.183099        8.574354
  O           13.963990       24.599298        6.551180
  C           13.596295       22.262389        7.820888
  F           12.796252       21.825940        8.837963
  F           14.748239       21.530573        7.931210
  F           13.037244       21.871612        6.642687
  C           11.556033       26.170519        7.084854
  F           12.562977       26.977295        7.502438
  F           10.426706       26.951196        7.126851
  F           11.756147       25.897519        5.761402
  O           13.454194       14.352269       13.840466
  S           12.945375       13.499595       14.920304
  O           13.809513       12.351497       15.183618
  N           11.399434       13.188929       14.753704
  S           10.828190       12.134212       15.790164
  O            9.369997       11.998816       15.702183
  O           11.298791       12.268817       17.171691
  C           11.511214       10.544610       15.124623
  F           11.876040       10.637015       13.811854
  F           10.569345        9.551710       15.166239
  F           12.571587       10.059680       15.827368
  C           12.940520       14.572879       16.431541
  F           11.725333       15.116461       16.690457
  F           13.789828       15.641891       16.281577
  F           13.364514       13.931674       17.560783
  O           19.108475        9.259289       13.392063
  S           20.015148       10.120393       12.624962
  O           19.457348       10.513437       11.333228
  N           21.496541        9.555335       12.605365
  S           22.486157       10.345685       11.651945
  O           23.874129        9.889955       11.787010
  O           22.368923       11.806547       11.670275
  C           21.938673        9.766915        9.978151
  F           21.239775        8.594754       10.028962
  F           23.015679        9.507899        9.173373
  F           21.192899       10.677143        9.293531
  C           20.222439       11.650659       13.650201
  F           21.351549       11.635328       14.401252
  F           19.192709       11.787022       14.548901
  F           20.218045       12.804893       12.919568
  O           10.101674        1.059135        9.584102
  S           10.843057        2.122640        8.897582
  O           11.196754        1.765096        7.525991
  N           12.014561        2.704190        9.794007
  S           12.960592        3.734147        9.047540
  O           13.926637        4.363309        9.954906
  O           12.294412        4.704220        8.173833
  C           13.961452        2.609918        7.965557
  F           13.952288        1.315310        8.400189
  F           15.280106        2.978495        7.963823
  F           13.586386        2.621622        6.656898
  C            9.682428        3.566455        8.833249
  F            9.899581        4.464426        9.826069
  F            8.379646        3.161094        8.991492
  F            9.708636        4.238441        7.644196
  O           18.362993       27.188531       11.697938
  S           18.092228       25.762250       11.487199
  O           17.715848       25.074149       12.719698
  N           19.217095       25.066865       10.612376
  S           19.074063       23.492591       10.493193
  O           20.037390       22.914592        9.549627
  O           17.714616       22.982640       10.293057
  C           19.633275       22.935825       12.170570
  F           20.383874       23.877444       12.814740
  F           20.442105       21.835081       12.076456
  F           18.618296       22.562642       12.997583
  C           16.643922       25.703652       10.331875
  F           17.006493       25.521454        9.037832
  F           15.949468       26.888575       10.348968
  F           15.726120       24.743646       10.651449
  O            6.953363        9.875196       17.352742
  S            5.998677        8.761417       17.361323
  O            6.586112        7.522308       17.865039
  N            5.199610        8.653264       15.996041
  S            4.278222        7.368818       15.876701
  O            3.441222        7.392462       14.672014
  O            3.524136        7.003066       17.079107
  C            5.529902        6.033989       15.580345
  F            6.719662        6.520799       15.119380
  F            5.099194        5.164963       14.613916
  F            5.781712        5.258391       16.670501
  C            4.655191        9.276273       18.529984
  F            3.577974        9.804726       17.897891
  F            5.092027       10.260203       19.383012
  F            4.215803        8.267114       19.339080
  O            3.592566       13.306100       25.741588
  S            3.248648       13.550495       24.336600
  O            2.507197       12.442554       23.739174
  N            4.486782       14.092445       23.507435
  S            4.228327       14.212548       21.948020
  O            5.339729       14.864823       21.246791
  O            2.921905       14.745137       21.550767
  C            4.286853       12.436881       21.418982
  F            4.935914       11.640548       22.318745
  F            4.983548       12.297597       20.248548
  F            3.064071       11.891267       21.172996
  C            2.142742       15.037929       24.354154
  F            2.803017       16.191288       24.083969
  F            1.583772       15.223922       25.594944
  F            1.086108       14.945739       23.493267
  O           13.721693       20.290223        4.816283
  S           13.865969       18.878848        4.443182
  O           14.874986       18.187318        5.241851
  N           13.963625       18.686545        2.872296
  S           14.293252       17.205454        2.413260
  O           14.216138       17.042277        0.957298
  O           13.598457       16.137052        3.137123
  C           16.095160       17.074982        2.828476
  F           16.696074       18.294817        2.954586
  F           16.782550       16.437857        1.830343
  F           16.353681       16.355302        3.954809
  C           12.220180       18.105850        4.803252
  F           11.430288       18.007580        3.705248
  F           11.503245       18.862971        5.697328
  F           12.308958       16.866412        5.370713
  O            2.403836        1.010328       11.265206
  S            3.534490        1.815069       10.789799
  O            4.603938        0.999221       10.219822
  N            3.976235        2.905495       11.852828
  S            5.299464        3.691575       11.473165
  O            5.579643        4.793236       12.400659
  O            5.431287        4.090457       10.068987
  C            6.603773        2.418763       11.812323
  F            6.171214        1.432436       12.651996
  F            7.682347        2.979160       12.442665
  F            7.110217        1.832285       10.692967
  C            2.844145        2.881120        9.439702
  F            2.519400        4.127688        9.863740
  F            1.677943        2.354057        8.940928
  F            3.673327        3.005603        8.361249
  O           14.685069       26.655035       23.079705
  S           14.074549       25.948073       24.210842
  O           13.483562       24.670121       23.821259
  N           13.161275       26.904190       25.086039
  S           12.337407       26.164499       26.220543
  O           11.634521       27.103353       27.101964
  O           13.054746       25.124377       26.963355
  C           11.009655       25.325998       25.235510
  F           10.830972       25.890582       24.004934
  F            9.795583       25.433567       25.859336
  F           11.205894       23.989577       25.065600
  C           15.468333       25.602355       25.382869
  F           15.556245       26.513297       26.383697
  F           16.680465       25.655082       24.739009
  F           15.414298       24.359725       25.947715
  O           23.599864       17.167514       27.104512
  S           24.610559       16.459730       26.311079
  O           24.148086       16.149794       24.960428
  N           25.268583       15.263675       27.117713
  S           26.242414       14.353109       26.260087
  O           26.947446       13.362447       27.081012
  O           27.136166       15.057542       25.336410
  C           25.042684       13.379533       25.235832
  F           23.786412       13.362042       25.771065
  F           25.418416       12.065125       25.159288
  F           24.948597       13.799129       23.944133
  C           26.037317       17.635009       26.173666
  F           27.012264       17.392308       27.084585
  F           25.637378       18.927878       26.408482
  F           26.613454       17.655526       24.935221
  O            6.579889       13.036084       14.269662
  S            5.208783       13.022211       13.748246
  O            4.219531       12.714396       14.778213
  N            5.094619       12.197507       12.398791
  S            3.611190       11.999291       11.876154
  O            3.565698       11.372901       10.550271
  O            2.731052       13.166869       11.977731
  C            2.967211       10.716355       13.049043
  F            3.965830       10.019705       13.667458
  F            2.229297        9.772975       12.385555
  F            2.136042       11.209389       14.007935
  C            4.894911       14.747733       13.148366
  F            5.084628       14.886183       11.812687
  F            5.762523       15.639206       13.730711
  F            3.645862       15.213338       13.447013
  O           16.530741       19.637721       10.066400
  S           17.526911       18.674692       10.548293
  O           17.968049       18.958105       11.911845
  N           18.671250       18.419213        9.480856
  S           19.868233       17.522414       10.006197
  O           20.819230       17.182038        8.942172
  O           19.494757       16.361986       10.819906
  C           20.769214       18.707061       11.111251
  F           20.475864       20.011877       10.834846
  F           22.123754       18.600283       10.942372
  F           20.557910       18.496032       12.439490
  C           16.661485       17.035545       10.554033
  F           16.919626       16.297136        9.446190
  F           15.297524       17.196547       10.571022
  F           16.947256       16.268478       11.647671
  O            5.599039       13.373490        4.685938
  S            7.056554       13.282966        4.825424
  O            7.473316       12.138889        5.632640
  N            7.705197       14.679767        5.202791
  S            9.253496       14.613790        5.536586
  O            9.841455       15.944993        5.722605
  O           10.064041       13.756873        4.666580
  C            9.242662       13.840634        7.221344
  F            8.036179       13.963496        7.849281
  F           10.142298       14.457615        8.048804
  F            9.594325       12.525468        7.229880
  C            7.699340       13.035814        3.104511
  F            8.124089       14.187492        2.527947
  F            6.716151       12.557056        2.273409
  F            8.714219       12.124983        3.023834
  O           21.810757       24.379798       19.940824
  S           22.748831       24.672227       18.851557
  O           22.250979       24.235402       17.549433
  N           24.232003       24.244219       19.213785
  S           25.262050       24.374379       18.015844
  O           26.644106       24.121717       18.438316
  O           25.137557       25.576806       17.187067
  C           24.796908       22.923319       16.960209
  F           24.101632       21.971678       17.650115
  F           25.911907       22.282708       16.490001
  F           24.080279       23.252350       15.850442
  C           22.900578       26.519289       18.817850
  F           23.992972       26.972550       19.481500
  F           21.828909       27.114880       19.437041
  F           22.925579       27.044452       17.557026
  O           16.772750       11.553374        9.014671
  S           16.690305       10.089413        9.059618
  O           15.685187        9.555318        8.143823
  N           16.643562        9.542345       10.547143
  S           16.380890        7.983343       10.663405
  O           16.504468        7.497942       12.042359
  O           17.093572        7.136635        9.702484
  C           14.574028        7.875277       10.263561
  F           13.925915        9.065813       10.429615
  F           13.938350        7.000499       11.103428
  F           14.310500        7.419323        9.008150
  C           18.352402        9.487422        8.502089
  F           19.175667        9.176005        9.533813
  F           19.016138       10.456630        7.790268
  F           18.292911        8.406161        7.669361
  O           11.635804       24.073366       22.346975
  S           12.325315       22.954425       21.695403
  O           11.872672       22.738436       20.323301
  N           12.383333       21.670483       22.624018
  S           12.961482       20.375614       21.915458
  O           13.144661       19.261573       22.852346
  O           14.126419       20.580764       21.049990
  C           11.544886       19.877039       20.828730
  F           10.355431       20.409686       21.236755
  F           11.359458       18.520767       20.857789
  F           11.719783       20.184771       19.514153
  C           14.111959       23.444957       21.639896
  F           14.838240       22.913507       22.654429
  F           14.255508       24.805061       21.766823
  F           14.732038       23.125398       20.465382
  O           11.880900       20.799907       12.993008
  S           10.593072       20.458827       13.607143
  O           10.679581       20.333617       15.060085
  N            9.866216       19.274032       12.844161
  S            8.554182       18.743042       13.558036
  O            7.831999       17.762156       12.740287
  O            7.669249       19.765867       14.122768
  C            9.260629       17.778279       14.974533
  F           10.564070       17.424418       14.772483
  F            8.590250       16.596592       15.144557
  F            9.173850       18.413294       16.175626
  C            9.472444       21.883522       13.219537
  F            8.681323       21.656300       12.141716
  F           10.194199       23.009524       12.906826
  F            8.669124       22.248703       14.262332
  O            4.697917        7.091116        9.623574
  S            3.528974        7.202506        8.744277
  O            2.555707        6.135910        8.966370
  N            3.942540        7.470532        7.237186
  S            2.735878        7.429332        6.209924
  O            3.138313        7.838337        4.859679
  O            1.495088        8.075219        6.647499
  C            2.402187        5.609569        6.094107
  F            3.464310        4.852697        6.499124
  F            2.169211        5.236226        4.797559
  F            1.302139        5.202715        6.785312
  C            2.728618        8.812687        9.194329
  F            3.077726        9.827100        8.364697
  F            3.112899        9.222636       10.447672
  F            1.364503        8.753854        9.237113
  O           13.798730        6.070588       18.091500
  S           12.415171        6.094376       18.578530
  O           11.460860        5.614297       17.582029
  N           12.057789        7.467774       19.285819
  S           10.530257        7.623044       19.680199
  O           10.278168        8.833207       20.470361
  O            9.888024        6.434950       20.249559
  C            9.746032        7.939930       18.030692
  F           10.641055        8.380757       17.098166
  F            8.803293        8.928956       18.118856
  F            9.088358        6.865668       17.514140
  C           12.381249        4.924626       20.016004
  F           12.499127        5.552792       21.212128
  F           13.435988        4.046330       19.963824
  F           11.262558        4.141856       20.059627
  O           15.466733       14.568840       15.367401
  S           16.483308       15.441961       14.770546
  O           16.897668       14.995177       13.442807
  N           17.648824       15.780682       15.790859
  S           18.863637       16.577180       15.156177
  O           19.838280       17.005615       16.165589
  O           18.512372       17.650210       14.221608
  C           19.715443       15.250314       14.181420
  F           19.388817       13.993809       14.605106
  F           21.074640       15.334820       14.323346
  F           19.492250       15.318060       12.840153
  C           15.664927       17.095312       14.590318
  F           15.958992       17.944669       15.605857
  F           14.296828       16.974169       14.605485
  F           15.957581       17.726725       13.414830
  O           21.367448       20.104468       22.213510
  S           19.959759       19.702549       22.307712
  O           19.719878       18.746202       23.385700
  N           19.352669       19.328308       20.891525
  S           17.889120       18.721651       20.946209
  O           17.309814       18.540665       19.610526
  O           16.960170       19.363784       21.880509
  C           18.214785       17.009485       21.577660
  F           19.509285       16.616690       21.390624
  F           17.459174       16.087457       20.904150
  F           17.903091       16.834616       22.891306
  C           19.031329       21.257468       22.702736
  F           18.483313       21.839240       21.607099
  F           19.865073       22.208813       23.237913
  F           18.041152       21.084821       23.627852
  O           25.274415       22.531745       14.147977
  S           24.468361       23.080798       13.052159
  O           25.160556       23.031304       11.766617
  N           23.807398       24.469303       13.438659
  S           23.066313       25.197451       12.241331
  O           22.337866       26.392861       12.680374
  O           22.264510       24.340282       11.363508
  C           24.494819       25.830203       11.243687
  F           25.649525       25.908736       11.968591
  F           24.258875       27.105714       10.805390
  F           24.747932       25.107614       10.117988
  C           22.977220       21.985108       12.943699
  F           21.900051       22.491763       13.593474
  F           23.214533       20.767272       13.532899
  F           22.599833       21.697971       11.662593
  O            1.416341       18.839974       15.384192
  S            2.069190       19.960183       14.697955
  O            3.465726       20.124225       15.094157
  N            1.176879       21.270743       14.718291
  S            1.896716       22.561843       14.145670
  O            0.985629       23.706579       14.036585
  O            2.703360       22.367153       12.937523
  C            3.059247       22.987677       15.525339
  F            2.688900       22.431665       16.716429
  F            3.078123       24.338146       15.750233
  F            4.355219       22.648621       15.282654
  C            2.031127       19.521403       12.897448
  F            1.001404       20.102283       12.233033
  F            1.858227       18.170226       12.721304
  F            3.185868       19.826215       12.234302
  O           13.498245       26.992202       14.837590
  S           13.889175       26.243161       16.036803
  O           13.377399       24.874846       16.035756
  N           13.651238       27.078848       17.363157
  S           13.890992       26.264487       18.701937
  O           13.815447       27.116056       19.894214
  O           15.058002       25.377875       18.716341
  C           12.380005       25.192525       18.766102
  F           11.359427       25.674587       17.997313
  F           11.874917       25.134177       20.037393
  F           12.603920       23.897265       18.411754
  C           15.740290       26.163646       15.983422
  F           16.332908       27.115119       16.746772
  F           16.207988       26.379150       14.710073
  F           16.247856       24.950441       16.353028
  O           14.961534       16.090739       27.099990
  S           14.868042       14.871746       26.289241
  O           14.872755       13.656500       27.100016
  N           15.869377       14.897450       25.060068
  S           15.940969       13.539417       24.245438
  O           16.754076       13.659859       23.030222
  O           14.662142       12.865707       24.002712
  C           16.924682       12.464542       25.391410
  F           17.646921       13.185261       26.299118
  F           17.849530       11.729230       24.699549
  F           16.178806       11.550636       26.071002
  C           13.230536       14.980467       25.427524
  F           13.329319       15.458152       24.162116
  F           12.386922       15.848670       26.076478
  F           12.556989       13.793031       25.378248
  O           18.359006       10.454512        1.068234
  S           18.988696       11.501950        1.879631
  O           18.043402       12.160896        2.777634
  N           19.908546       12.455709        1.008758
  S           20.479947       13.709229        1.793097
  O           21.448274       14.471572        0.997122
  O           20.948780       13.455796        3.158442
  C           18.980734       14.792730        1.914295
  F           18.026575       14.476681        0.989798
  F           19.300866       16.100757        1.666745
  F           18.396728       14.795320        3.144063
  C           20.250768       10.626258        2.917001
  F           21.501360       10.692320        2.396563
  F           19.969141        9.285206        3.011166
  F           20.306805       11.073917        4.206404
  O            6.380466        4.529135        2.117120
  S            7.803575        4.209600        2.274146
  O            8.236373        3.127044        1.393830
  N            8.218850        4.080728        3.798987
  S            9.700602        3.568201        4.032923
  O           10.091336        3.616955        5.446199
  O           10.723827        4.129407        3.146211
  C            9.543953        1.766175        3.627386
  F            8.254608        1.321281        3.695653
  F           10.235945        1.000116        4.526830
  F           10.046833        1.426582        2.408703
  C            8.709280        5.749104        1.778740
  F            9.069594        6.515053        2.838314
  F            7.919047        6.558768        0.999909
  F            9.827678        5.510802        1.031414
  O            9.690152       17.487182       11.573482
  S            8.600897       17.776202       10.634338
  O            8.106255       19.145712       10.752539
  N            7.502302       16.632850       10.628586
  S            6.215503       16.965678        9.764656
  O            5.303032       15.821712        9.659117
  O            6.457138       17.614186        8.472661
  C            5.343288       18.192939       10.846031
  F            5.746225       18.126328       12.149183
  F            3.996108       17.950008       10.874152
  F            5.464141       19.483293       10.429161
  C            9.342485       17.577400        8.947232
  F            9.093275       16.361966        8.399679
  F           10.711488       17.678726        8.993757
  F            8.940806       18.531445        8.055856
  O           21.042671       11.002818       16.860939
  S           20.763071        9.769366       17.604189
  O           21.474435        8.614027       17.062570
  N           19.212166        9.574976       17.870849
  S           18.828868        8.179029       18.516927
  O           17.412050        8.107481       18.890968
  O           19.716458        7.694975       19.578094
  C           19.015233        7.032028       17.072643
  F           18.968511        7.683620       15.873374
  F           17.987954        6.127828       17.029972
  F           20.150167        6.280816       17.104321
  C           21.391970       10.077833       19.320328
  F           20.416650       10.464537       20.179636
  F           22.311039       11.098480       19.334174
  F           22.036236        9.005548       19.869168
  O            5.466319       19.292287       21.770335
  S            6.720108       19.522699       22.496229
  O            6.623406       19.168606       23.910254
  N            7.342107       20.944575       22.171288
  S            8.603678       21.324272       23.052917
  O            9.238569       22.570846       22.610915
  O            9.573499       20.250317       23.285872
  C            7.817043       21.723639       24.683258
  F            6.487937       22.015916       24.569020
  F            8.383214       22.839237       25.239667
  F            7.958399       20.746804       25.620921
  C            7.959177       18.393610       21.705238
  F            8.727596       19.017750       20.778318
  F            7.337001       17.372061       21.030009
  F            8.791149       17.780631       22.598646
  C           16.956433       11.996474       12.507545
  C           16.149215       12.312851       13.748192
  N           15.879922       11.099255       14.528169
  C           16.663014       10.604170       15.566466
  C           16.050927        9.462583       15.996148
  N           14.920712        9.288391       15.221053
  C           13.970880        8.189222       15.341659
  C           14.836470       10.281166       14.333134
  H           17.140931       12.908912       11.929343
  H           17.914037       11.550531       12.773682
  H           16.424401       11.292360       11.863445
  H           15.191610       12.758794       13.482055
  H           16.685922       13.024194       14.387203
  H           17.551337       11.136620       15.861728
  H           16.279070        8.744120       16.777085
  H           13.162642        8.316129       14.621974
  H           14.493369        7.248052       15.133322
  H           13.563071        8.167793       16.351527
  H           14.054951       10.414402       13.588032
  C           13.904837       11.431271        1.720640
  C           13.873790       12.700334        2.544906
  N           14.980637       12.733142        3.507980
  C           16.234690       13.296765        3.293318
  C           16.946282       13.094137        4.440086
  N           16.120843       12.420496        5.319494
  C           16.480846       12.001234        6.668389
  C           14.939621       12.202390        4.737907
  H           13.067551       11.414725        1.013831
  H           14.836905       11.357018        1.161680
  H           13.823454       10.548085        2.358653
  H           12.941722       12.774587        3.103866
  H           13.949922       13.582750        1.898417
  H           16.449211       13.770791        2.350407
  H           17.953090       13.357985        4.748018
  H           15.631096       11.513156        7.144838
  H           17.314377       11.291654        6.605765
  H           16.780472       12.869939        7.253348
  H           14.086545       11.694444        5.182825
  C            7.602618       10.351413       13.860765
  C            7.789911        9.368937       12.724736
  N            9.166051        9.404015       12.216103
  C           10.217140        8.599529       12.645538
  C           11.307862        8.973642       11.915563
  N           10.903536        9.985190       11.065980
  C           11.754892       10.677939       10.106713
  C            9.608745       10.239273       11.266120
  H            6.568962       10.322749       14.223577
  H            8.271141       10.116465       14.688157
  H            7.816074       11.372106       13.534693
  H            7.121389        9.603885       11.897344
  H            7.568550        8.347631       13.056901
  H           10.043557        7.864393       13.413161
  H           12.338262        8.633545       11.888912
  H           11.169674       11.411151        9.552439
  H           12.553347       11.193873       10.653048
  H           12.188905        9.956458        9.415555
  H            9.010294       10.983601       10.745033
  C            7.261271       24.893476       15.910272
  C            7.504283       24.426428       17.329325
  N            7.802539       22.990084       17.370042
  C            9.069114       22.416246       17.316202
  C            8.879799       21.065922       17.373522
  N            7.518502       20.847559       17.461205
  C            6.872405       19.543444       17.543320
  C            6.881181       22.020069       17.449221
  H            7.029252       25.964385       15.895437
  H            8.139248       24.716438       15.290180
  H            6.419239       24.361011       15.461760
  H            6.626307       24.603466       17.949418
  H            8.346516       24.968616       17.775506
  H            9.936744       23.050561       17.247924
  H            9.557749       20.218291       17.371243
  H            5.793267       19.668269       17.628054
  H            7.098638       18.980411       16.630077
  H            7.248636       19.003219       18.411195
  H            5.804881       22.168830       17.505337
  C           13.045161       19.429267       15.466261
  C           12.730181       19.780053       16.904537
  N           12.803892       18.594784       17.766745
  C           13.926190       18.160705       18.465617
  C           13.551380       17.025280       19.123512
  N           12.224347       16.794421       18.816612
  C           11.421657       15.681122       19.307686
  C           11.790005       17.746980       17.988917
  H           12.975970       20.320366       14.832183
  H           14.049311       19.015590       15.381089
  H           12.341509       18.687440       15.081207
  H           11.726031       20.193731       16.989708
  H           13.436097       20.528987       17.282930
  H           14.841820       18.724064       18.401990
  H           14.071475       16.345328       19.790796
  H           10.404038       15.760278       18.926259
  H           11.866389       14.743483       18.953785
  H           11.407348       15.693371       20.396834
  H           10.787875       17.831963       17.573932
  C           15.158836       17.523999       22.708974
  C           15.776194       17.948618       24.024066
  N           14.910965       18.898943       24.732557
  C           13.938506       18.574537       25.673559
  C           13.374998       19.754768       26.063447
  N           14.008770       20.761733       25.361412
  C           13.716535       22.185616       25.471220
  C           14.928271       20.227234       24.555230
  H           15.819531       16.823541       22.185772
  H           14.195874       17.041730       22.872744
  H           14.997556       18.385131       22.056179
  H           16.739156       18.430887       23.860296
  H           15.940790       17.079413       24.671979
  H           13.782149       17.543204       25.941336
  H           12.593226       20.008219       26.772457
  H           14.383603       22.752769       24.822639
  H           12.679614       22.357237       25.158906
  H           13.847683       22.507024       26.503739
  H           15.586499       20.769775       23.879890
  C           23.420868        5.778545       21.979567
  C           23.053134        6.851601       20.977458
  N           23.094090        6.331280       19.605857
  C           22.023928        5.778885       18.908711
  C           22.508869        5.421980       17.683986
  N           23.847849        5.761183       17.660032
  C           24.755136        5.554181       16.538034
  C           24.187848        6.301630       18.831961
  H           23.396904        6.182957       22.997789
  H           22.727794        4.940287       21.918965
  H           24.427638        5.397322       21.793064
  H           23.746209        7.689858       21.038061
  H           22.044316        7.233935       21.173687
  H           21.057685        5.718392       19.380424
  H           22.056988        4.968176       16.807650
  H           25.744796        5.937381       16.785077
  H           24.825979        4.478758       16.336419
  H           24.371431        6.068901       15.658015
  H           25.174143        6.666192       19.111274
  C           19.183611       13.755470        9.971528
  C           19.308657       14.436054        8.625397
  N           20.498682       13.969008        7.904697
  C           20.545186       12.910338        7.002779
  C           21.840943       12.821817        6.583640
  N           22.548340       13.816941        7.230028
  C           23.973159       14.082512        7.074257
  C           21.724546       14.495664        8.031151
  H           18.297770       14.120980       10.503118
  H           19.099899       12.675960        9.851729
  H           20.057330       13.958364       10.595346
  H           19.392370       15.515563        8.745196
  H           18.426335       14.233354        8.006672
  H           19.644498       12.364233        6.778434
  H           22.354939       12.167615        5.886556
  H           24.259948       14.939537        7.682994
  H           24.533959       13.201148        7.407273
  H           24.194732       14.285463        6.027206
  H           21.992609       15.336224        8.667784
  C            7.419777       24.721377        9.238288
  C            7.093579       23.284703        8.891211
  N            8.236026       22.622355        8.251047
  C            9.227178       21.892809        8.900493
  C           10.087535       21.468386        7.929849
  N            9.608093       21.941315        6.723626
  C           10.223954       21.720400        5.421009
  C            8.493472       22.643895        6.935997
  H            6.555413       25.206852        9.705289
  H            8.263146       24.770156        9.926074
  H            7.681786       25.290468        8.343198
  H            6.250210       23.235924        8.203425
  H            6.825909       22.720773        9.792729
  H            9.182550       21.771540        9.969653
  H           10.993286       20.870547        7.947266
  H            9.620893       22.185072        4.641459
  H           11.222051       22.174275        5.422022
  H           10.306512       20.650703        5.232509
  H            7.889876       23.139000        6.178209
  C           22.191635       17.154038       21.828688
  C           22.957061       16.726300       23.062407
  N           23.652176       17.864360       23.675053
  C           23.147857       18.686796       24.677880
  C           24.117112       19.611915       24.937109
  N           25.179476       19.336739       24.097966
  C           26.430599       20.082642       24.041234
  C           24.879205       18.283165       23.335784
  H           21.686690       16.293517       21.375440
  H           21.444877       17.906441       22.079572
  H           22.862904       17.582124       21.080463
  H           23.703820       15.973897       22.811523
  H           22.278708       16.292368       23.806677
  H           22.164637       18.498089       25.074701
  H           24.187191       20.441796       25.633160
  H           27.098818       19.631885       23.308021
  H           26.211937       21.114537       23.741937
  H           26.904396       20.076701       25.022091
  H           25.518115       17.832340       22.579312
  C           12.822918       13.212888        7.046180
  C           12.829467       14.300018        5.993087
  N           13.830323       15.328433        6.300254
  C           15.147862       15.346480        5.852855
  C           15.716087       16.468629        6.382385
  N           14.744610       17.104011        7.131398
  C           14.923359       18.345478        7.874169
  C           13.613467       16.397741        7.078491
  H           12.064387       12.457898        6.810551
  H           13.795750       12.726132        7.104203
  H           12.592770       13.624176        8.031864
  H           11.856636       14.786774        5.935063
  H           13.055207       13.879919        5.005687
  H           15.501810       14.556295        5.212442
  H           16.706823       16.906164        6.310924
  H           13.986668       18.630246        8.352517
  H           15.687220       18.187741        8.644777
  H           15.243453       19.134774        7.195088
  H           12.674800       16.647115        7.568814
  C            2.129636       17.738393       26.452366
  C            3.296710       18.666106       26.191244
  N            4.330136       18.003271       25.387266
  C            4.427512       18.028432       23.999359
  C            5.522250       17.279038       23.679270
  N            6.063381       16.819304       24.864310
  C            7.247080       15.977269       24.985700
  C            5.326342       17.258655       25.886486
  H            1.370983       18.241830       27.062199
  H            1.672421       17.420635       25.516051
  H            2.453328       16.843875       26.989731
  H            3.753925       18.983864       27.127559
  H            2.964230       19.564170       25.657073
  H            3.702984       18.582122       23.426396
  H            5.996780       17.018138       22.738604
  H            7.461591       15.787412       26.037003
  H            7.054024       15.023647       24.480195
  H            8.098101       16.474029       24.521381
  H            5.504573       17.060342       26.941287
  C            1.906138       15.993876       15.898730
  C            2.468604       14.964062       16.854771
  N            3.697835       15.449694       17.492621
  C            3.776391       16.131475       18.703159
  C            5.099412       16.396883       18.907299
  N            5.791348       15.876686       17.830674
  C            7.235418       15.937448       17.641282
  C            4.929084       15.315315       16.980696
  H            0.995389       15.614506       15.421746
  H            1.667904       16.918160       16.423749
  H            2.624918       16.229932       15.110484
  H            2.706838       14.039778       16.329752
  H            1.740413       14.727358       17.639698
  H            2.875878       16.332323       19.258620
  H            5.645018       16.892990       19.703724
  H            7.510902       15.426390       16.719204
  H            7.537588       16.989256       17.573510
  H            7.734990       15.464929       18.486122
  H            5.177097       14.823744       16.042321
  C           16.363254       10.476211       22.903063
  C           15.854747       10.296767       21.488806
  N           16.552560       11.191342       20.557951
  C           17.698837       10.882812       19.831826
  C           18.005514       11.999048       19.109008
  N           17.050788       12.952631       19.405114
  C           16.997653       14.299953       18.851219
  C           16.185068       12.451720       20.288696
  H           15.826758        9.810762       23.588810
  H           17.428255       10.254619       22.961117
  H           16.213707       11.502911       23.245441
  H           14.789747       10.518358       21.430752
  H           16.002397        9.263247       21.153491
  H           18.139780        9.904830       19.926272
  H           18.794194       12.234466       18.401433
  H           16.126435       14.826945       19.239236
  H           17.905379       14.838600       19.148024
  H           16.940385       14.246407       17.764732
  H           15.324542       12.966757       20.710517
  C            2.219451       20.603263        4.447930
  C            2.641176       20.054602        5.794042
  N            2.961836       18.625216        5.706101
  C            4.219973       18.083098        5.461970
  C            4.057654       16.728067        5.455285
  N            2.720534       16.475561        5.693717
  C            2.107340       15.155312        5.770108
  C            2.070547       17.632630        5.834459
  H            1.972706       21.667817        4.530046
  H            3.017025       20.483808        3.715601
  H            1.336115       20.081648        4.071984
  H            1.843602       20.174057        6.526371
  H            3.524291       20.586068        6.168278
  H            5.063885       18.738879        5.329443
  H            4.741755       15.896933        5.316282
  H            1.045152       15.251487        5.993283
  H            2.227471       14.654860        4.801957
  H            2.594617       14.570599        6.549384
  H            1.007336       17.754523        6.030476
  C           13.306224       26.042687        1.848460
  C           12.920278       25.262093        3.086449
  N           13.134612       23.823212        2.893103
  C           14.291249       23.118694        3.212861
  C           14.058359       21.821088        2.860042
  N           12.779839       21.762233        2.340020
  C           12.123155       20.561708        1.837619
  C           12.238428       22.981909        2.359096
  H           13.131169       27.113451        2.002475
  H           14.357887       25.890398        1.608643
  H           12.714850       25.726190        0.986018
  H           11.868614       25.414382        3.326266
  H           13.513076       25.588481        3.949271
  H           15.124888       23.638943        3.653529
  H           14.651533       20.914324        2.923466
  H           11.111438       20.800766        1.511153
  H           12.695208       20.178487        0.984333
  H           12.086764       19.808800        2.624006
  H           11.241918       23.249814        2.014284
  C           22.853156       14.126825       16.695993
  C           21.827280       15.130644       17.176435
  N           22.390654       16.485149       17.216759
  C           22.340054       17.422560       16.189578
  C           22.990552       18.530227       16.650474
  N           23.417852       18.248741       17.933705
  C           24.158677       19.157951       18.799392
  C           23.054919       17.006000       18.257704
  H           22.423041       13.119017       16.681033
  H           23.196566       14.376280       15.692727
  H           23.723882       14.110768       17.355749
  H           21.483869       14.881190       18.179700
  H           20.953801       15.137603       16.513573
  H           21.842225       17.173420       15.267680
  H           23.198803       19.504492       16.219731
  H           24.342911       18.685175       19.763674
  H           25.118781       19.392171       18.324480
  H           23.586265       20.073557       18.942953
  H           23.250677       16.503392       19.202566
  C            5.844202       22.619453       12.539966
  C            5.683412       23.965540       11.866843
  N            4.777575       24.833334       12.628481
  C            5.151887       25.741798       13.613866
  C            3.998652       26.320880       14.057952
  N            2.958286       25.761001       13.341939
  C            1.547234       26.092371       13.496942
  C            3.444952       24.857810       12.488416
  H            6.513810       21.978197       11.955744
  H            6.256049       22.735817       13.541736
  H            4.882420       22.108723       12.628447
  H            5.271565       23.849177       10.865073
  H            6.652695       24.470136       11.775891
  H            6.193426       25.855390       13.863053
  H            3.786268       27.081799       14.802261
  H            0.950866       25.518086       12.788533
  H            1.236174       25.838923       14.517337
  H            1.400558       27.157414       13.321528
  H            2.867913       24.253622       11.791507
  C           21.040440        4.286543        5.646941
  C           20.499431        4.885543        6.927335
  N           19.099933        5.297816        6.768795
  C           17.981403        4.519362        7.050397
  C           16.894821        5.289046        6.751355
  N           17.367899        6.506121        6.300330
  C           16.544375        7.629621        5.870845
  C           18.702378        6.492155        6.308789
  H           22.088425        3.993264        5.775841
  H           20.463798        3.408665        5.357952
  H           20.991503        5.006637        4.826715
  H           21.076073        5.763421        7.216323
  H           20.556779        4.160040        7.747552
  H           18.112113        3.520296        7.430636
  H           15.824172        5.121556        6.812661
  H           17.179235        8.469416        5.589781
  H           15.952104        7.319914        5.001652
  H           15.880216        7.926829        6.681499
  H           19.357040        7.307305        6.007711
  C           10.104123       10.111944        4.666808
  C            9.476521        9.111873        3.719773
  N            8.395237        8.367798        4.376184
  C            7.047461        8.714066        4.376368
  C            6.406910        7.756848        5.108439
  N            7.365709        6.857451        5.533044
  C            7.116995        5.674087        6.347102
  C            8.563038        7.245626        5.089397
  H           10.916323       10.652434        4.167706
  H            9.364113       10.832685        5.012665
  H           10.522393        9.611673        5.543437
  H           10.216531        8.391132        3.373915
  H            9.064016        9.619565        2.839722
  H            6.726155        9.596760        3.849667
  H            5.367706        7.596672        5.377693
  H            8.048872        5.133843        6.511546
  H            6.709869        5.991495        7.314418
  H            6.401651        5.026524        5.841587
  H            9.509798        6.738469        5.262998
  C           14.889962        4.447581        4.354870
  C           13.629611        5.089261        3.815739
  N           13.110727        6.099475        4.745217
  C           13.413070        7.457677        4.728655
  C           12.724527        8.015302        5.766665
  N           12.024501        6.998005        6.385996
  C           11.155022        7.150922        7.545962
  C           12.275436        5.845303        5.761970
  H           15.260339        3.688385        3.656771
  H           15.668634        5.194215        4.506224
  H           14.701054        3.958842        5.313592
  H           12.850939        4.342627        3.664385
  H           13.824586        5.572749        2.851051
  H           14.077295        7.844426        3.974314
  H           12.637698        9.029647        6.143049
  H           10.712756        6.190133        7.807849
  H           11.754308        7.512860        8.389797
  H           10.367024        7.868270        7.319971
  H           11.867735        4.870454        6.021101
  C           15.050978       22.613033       17.494690
  C           16.522513       22.466541       17.817220
  N           16.866484       23.177055       19.054376
  C           16.870979       22.633238       20.335252
  C           17.239368       23.641876       21.177533
  N           17.450284       24.765413       20.401853
  C           17.858227       26.074001       20.897918
  C           17.212387       24.470050       19.122296
  H           14.810168       22.087374       16.563781
  H           14.437672       22.204187       18.296813
  H           14.781102       23.663966       17.366596
  H           17.135819       22.875387       17.015097
  H           16.787935       21.409568       17.938705
  H           16.613777       21.596526       20.472638
  H           17.388451       23.698265       22.251169
  H           17.973624       26.767378       20.065325
  H           17.082736       26.451148       21.575099
  H           18.802289       25.983628       21.433809
  H           17.294425       25.151238       18.277930
  C           21.250487       25.585320        8.382960
  C           20.823104       25.194343        6.984611
  N           19.669891       24.287315        7.017786
  C           18.331450       24.664299        6.964320
  C           17.606199       23.510228        7.032382
  N           18.506703       22.466549        7.123629
  C           18.160578       21.053671        7.217834
  C           19.749247       22.953564        7.122232
  H           22.118305       26.253358        8.344001
  H           20.440809       26.092678        8.906132
  H           21.529797       24.705390        8.967263
  H           21.632782       24.686984        6.461439
  H           20.549822       26.082099        6.401855
  H           18.076731       25.707352        6.880901
  H           16.541876       23.297809        7.018455
  H           19.067460       20.450627        7.252511
  H           17.586233       20.892555        8.137817
  H           17.561269       20.765921        6.354915
  H           20.668222       22.374357        7.183091
  C           26.058911        3.025048        8.803628
  C           24.779215        3.225146        8.020531
  N           23.625726        3.361879        8.917451
  C           23.116119        4.556228        9.417682
  C           22.057809        4.218142       10.210258
  N           21.945067        2.841689       10.176098
  C           20.943649        2.055007       10.885457
  C           22.905204        2.338842        9.397392
  H           26.909855        2.913633        8.122174
  H           26.245310        3.873182        9.461370
  H           26.003165        2.125621        9.421385
  H           24.592816        2.377012        7.362789
  H           24.843893        4.125837        7.398460
  H           23.576206        5.488569        9.136859
  H           21.352993        4.797439       10.798264
  H           21.073470        0.997148       10.658784
  H           21.072686        2.210288       11.963157
  H           19.946928        2.375218       10.584438
  H           23.071356        1.286255        9.177950
  C           11.763098        5.147326       14.703662
  C           11.801756        3.634248       14.705034
  N           13.006583        3.134970       14.032119
  C           14.220332        2.836479       14.643768
  C           15.056232        2.416772       13.649978
  N           14.342933        2.466474       12.467932
  C           14.855012        2.102574       11.152542
  C           13.108904        2.910690       12.714800
  H           10.853935        5.506285       15.199112
  H           12.629549        5.555836       15.222394
  H           11.766306        5.538002       13.683337
  H           10.935306        3.225738       14.186302
  H           11.792415        3.248576       15.731469
  H           14.322754        2.960545       15.708624
  H           16.086253        2.074690       13.638375
  H           14.070483        2.214231       10.404647
  H           15.688110        2.769997       10.902150
  H           15.202654        1.070347       11.168467
  H           12.317944        3.055969       11.982013
  C           24.513521       23.186572        7.332910
  C           25.245324       21.861672        7.334029
  N           24.710362       20.960670        6.306552
  C           25.177194       20.840486        5.001169
  C           24.390085       19.902540        4.398494
  N           23.471871       19.474961        5.337940
  C           22.436031       18.473468        5.116702
  C           23.673340       20.130269        6.482964
  H           24.915303       23.845110        8.111240
  H           24.614343       23.682158        6.368062
  H           23.448069       23.045368        7.529314
  H           25.144503       21.366086        8.298877
  H           26.314601       22.010880        7.142239
  H           26.012408       21.439135        4.678931
  H           24.374623       19.472447        3.402060
  H           21.871686       18.313712        6.035012
  H           21.757023       18.835929        4.335824
  H           22.894420       17.537395        4.800084
  H           23.106642       20.007784        7.403589
  C           15.771235       22.632201       12.889965
  C           14.358312       22.356384       12.422554
  N           13.451095       23.442961       12.809862
  C           13.134892       24.557780       12.039413
  C           12.270749       25.305510       12.785507
  N           12.079676       24.638447       13.980085
  C           11.227664       25.086538       15.074704
  C           12.806610       23.519224       13.982434
  H           16.435387       21.808793       12.603953
  H           16.149054       23.555450       12.452284
  H           15.811038       22.733867       13.977062
  H           13.980493       21.433135       12.860234
  H           14.326265       22.249651       11.331691
  H           13.567260       24.665356       11.058961
  H           11.752136       26.242307       12.607879
  H           11.245057       24.355173       15.882233
  H           11.609269       26.044059       15.448511
  H           10.207032       25.212360       14.715428
  H           12.861252       22.788278       14.786444
  C            8.156788       13.312445       11.031561
  C            9.019203       13.295257       12.275284
  N           10.100771       14.282884       12.183073
  C           10.049160       15.596761       12.638555
  C           11.260061       16.152020       12.342063
  N           12.015676       15.176604       11.720687
  C           13.379807       15.342198       11.234244
  C           11.297673       14.055742       11.624565
  H            7.360500       12.563556       11.108956
  H            7.703393       14.292802       10.890023
  H            8.748234       13.083291       10.141966
  H            9.472598       12.314900       12.416822
  H            8.418724       13.520122       13.164812
  H            9.154586       15.957815       13.117279
  H           11.688491       17.135599       12.506747
  H           13.739490       14.404835       10.810831
  H           13.384506       16.113836       10.455301
  H           14.026685       15.645628       12.056484
  H           11.624931       13.117015       11.182531
  C           25.419568       18.837737        9.740885
  C           26.259460       17.820233       10.482617
  N           25.461598       16.646452       10.855920
  C           25.314027       15.485269       10.103407
  C           24.486516       14.668900       10.818437
  N           24.151970       15.340811       11.978228
  C           23.282483       14.832466       13.032020
  C           24.742377       16.537686       11.981527
  H           26.024373       19.712922        9.477897
  H           25.009758       18.407672        8.827758
  H           24.584236       19.179338       10.356700
  H           26.669270       18.250297       11.395744
  H           27.099062       17.485981        9.861534
  H           25.823669       15.396555        9.158846
  H           24.093881       13.671705       10.646571
  H           23.212910       15.560623       13.839638
  H           22.283393       14.663569       12.613101
  H           23.683439       13.895363       13.416303
  H           24.666348       17.291325       12.762518
  C            2.135450       16.393521        9.963641
  C            1.944319       17.284204        8.754901
  N            2.932791       18.368744        8.735007
  C            4.171068       18.334799        8.101036
  C            4.759330       19.541576        8.346266
  N            3.877654       20.277362        9.114228
  C            4.105962       21.630829        9.605047
  C            2.782495       19.551226        9.347580
  H            1.384831       15.595145        9.971887
  H            3.126968       15.942352        9.957471
  H            2.030346       16.963091       10.890055
  H            0.952801       17.735373        8.761071
  H            2.045203       16.705578        7.828934
  H            4.464358       17.453457        7.556044
  H            5.709681       19.979046        8.057210
  H            3.235447       21.975554       10.162423
  H            4.977998       21.621828       10.269632
  H            4.291194       22.298093        8.764187
  H            1.913280       19.863099        9.922819
  C           19.543411       22.534053       25.691281
  C           21.008804       22.874197       25.858093
  N           21.714931       22.817584       24.572838
  C           21.908008       23.882773       23.698485
  C           22.599778       23.382742       22.633626
  N           22.812344       22.039880       22.878654
  C           23.515020       21.117526       21.995246
  C           22.264004       21.712268       24.050444
  H           19.030851       22.569441       26.659232
  H           19.059437       23.235328       25.012545
  H           19.419106       21.528773       25.281819
  H           21.492779       22.172923       26.536829
  H           21.126466       23.881666       26.274701
  H           21.528119       24.856876       23.956568
  H           22.981383       23.825874       21.719235
  H           23.556461       20.127666       22.448854
  H           22.970110       21.055445       21.045815
  H           24.525884       21.481723       21.816044
  H           22.268863       20.726482       24.510773
  C            3.031337       19.494943       17.929530
  C            1.668436       19.936917       18.417443
  N            1.754346       20.540928       19.752168
  C            1.925394       21.894158       20.027686
  C            1.959802       22.006108       21.387385
  N            1.809681       20.734483       21.905973
  C            1.789251       20.393558       23.323101
  C            1.695418       19.859547       20.904708
  H            2.951270       19.036356       16.937468
  H            3.713242       20.342383       17.869934
  H            3.469086       18.757345       18.606306
  H            0.986531       19.089478       18.477040
  H            1.232281       20.672436       17.731017
  H            1.995822       22.596637       19.214443
  H            2.065970       22.849286       22.062574
  H            1.632473       19.322191       23.445138
  H            2.754239       20.668407       23.765205
  H            0.988323       20.940515       23.819039
  H            1.565474       18.783661       21.001065
  C            4.911890       23.659219       22.399973
  C            4.267800       25.008336       22.163475
  N            4.013457       25.230346       20.735287
  C            2.838958       24.920754       20.056241
  C            3.041944       25.283448       18.756337
  N            4.319885       25.801288       18.671425
  C            4.949560       26.310923       17.459533
  C            4.896621       25.754133       19.874028
  H            5.106058       23.511055       23.468264
  H            4.266252       22.856199       22.046403
  H            5.865022       23.582505       21.871434
  H            4.913438       25.811355       22.517045
  H            3.314891       25.080975       22.701144
  H            2.013616       24.485922       20.594323
  H            2.421203       25.244324       17.866815
  H            5.949285       26.679667       17.687299
  H            5.024673       25.494287       16.731754
  H            4.346129       27.117967       17.045827
  H            5.901530       26.090696       20.120164
  C           19.351525       21.309264       18.581973
  C           20.521944       22.268829       18.566077
  N           20.121010       23.584232       18.053567
  C           19.677031       24.658879       18.818039
  C           19.407159       25.667560       17.939272
  N           19.689912       25.192898       16.673078
  C           19.542393       25.944850       15.433036
  C           20.111960       23.929710       16.758707
  H           19.666951       20.328786       18.956232
  H           18.551892       21.686644       19.218269
  H           18.945405       21.170617       17.577213
  H           21.321577       21.891449       17.929782
  H           20.928415       22.399008       19.576144
  H           19.617087       24.559750       19.888731
  H           19.050527       26.685460       18.060899
  H           19.860342       25.334302       14.588382
  H           18.486418       26.211559       15.306612
  H           20.147192       26.849615       15.480147
  H           20.408707       23.292011       15.928658
