        3360
  Built with Packmol                                             
  O            0.998036       23.843210       20.440767
  S            2.266060       23.171939       20.602354
  O            3.338712       23.315847       19.637258
  C            2.896851       23.537198       22.228911
  C            3.186108       22.176196       22.856529
  C            2.069937       21.244731       22.382889
  C            1.976251       21.435247       20.884514
  H            3.790764       24.163260       22.154983
  H            2.118405       24.063943       22.786370
  H            3.222352       22.239270       23.949328
  H            4.154581       21.798123       22.506643
  H            1.122259       21.539740       22.863802
  H            2.265723       20.204348       22.646273
  H            0.998788       21.155399       20.479114
  H            2.764008       20.877836       20.367957
  O           17.883191       26.633709       22.968365
  S           18.107949       26.080066       24.282733
  O           17.976443       26.880156       25.484923
  C           17.116807       24.608613       24.454381
  C           18.096852       23.518041       24.878721
  C           19.391743       23.789705       24.112395
  C           19.691191       25.260083       24.308657
  H           16.325244       24.770906       25.191665
  H           16.677274       24.377845       23.480853
  H           17.702169       22.519510       24.662708
  H           18.286996       23.581218       25.957217
  H           19.232805       23.573395       23.042653
  H           20.212518       23.160529       24.459623
  H           20.331846       25.673569       23.523360
  H           20.144043       25.441036       25.288597
  O           32.770246       22.116192       16.036323
  S           32.894501       22.671183       17.363405
  O           31.909292       22.416972       18.396575
  C           34.512844       22.272061       17.994807
  C           35.112930       23.609419       18.420565
  C           34.648553       24.632255       17.383279
  C           33.155645       24.430736       17.239009
  H           34.429786       21.566153       18.826249
  H           35.094780       21.826110       17.184450
  H           36.205567       23.558154       18.475486
  H           34.736791       23.892824       19.411272
  H           35.153940       24.431444       16.423769
  H           34.891501       25.653934       17.678657
  H           32.766700       24.793011       16.282150
  H           32.613921       24.906929       18.062342
  O           28.425723       15.625753       35.033577
  S           28.002711       17.006206       35.030525
  O           28.772295       18.045824       35.685991
  C           27.682008       17.496408       33.347120
  C           26.264803       18.063144       33.362635
  C           25.471095       17.194321       34.338838
  C           26.313168       17.101043       35.592797
  H           28.423709       18.230987       33.020358
  H           27.736847       16.605883       32.716123
  H           25.819864       18.055126       32.361902
  H           26.277693       19.100370       33.719421
  H           25.329331       16.192255       33.900470
  H           24.483330       17.608674       34.545559
  H           26.078245       16.221171       36.200034
  H           26.214513       18.006341       36.200088
  O           23.266966       27.497544       23.198718
  S           24.596869       26.963163       23.373063
  O           25.748620       27.821543       23.571433
  C           24.551455       25.744420       24.672910
  C           25.166226       24.488741       24.060352
  C           24.688220       24.447184       22.608600
  C           24.949073       25.827048       22.044570
  H           25.108001       26.101418       25.544293
  H           23.506635       25.572654       24.943182
  H           24.868241       23.588967       24.609090
  H           26.260922       24.554227       24.085912
  H           23.607930       24.225922       22.588198
  H           25.196351       23.672655       22.032398
  H           24.316590       26.062284       21.182752
  H           26.002726       25.947612       21.773681
  O            3.404794        7.954793       27.776282
  S            4.490998        8.695388       28.373173
  O            5.877714        8.329067       28.159798
  C            4.280860       10.421846       27.983064
  C            4.323469       11.140242       29.329166
  C            3.604102       10.225709       30.321104
  C            4.200371        8.848564       30.125821
  H            5.072280       10.754405       27.305157
  H            3.305386       10.547727       27.506823
  H            3.849000       12.125680       29.271802
  H            5.363525       11.282945       29.647319
  H            2.526745       10.210605       30.085576
  H            3.713850       10.571136       31.350052
  H            3.536447        8.044899       30.459629
  H            5.166959        8.763908       30.632417
  O           17.700975       25.029363        9.491231
  S           17.087315       23.918502        8.802748
  O           17.067679       23.829212        7.355564
  C           17.750667       22.403797        9.468055
  C           16.530477       21.581856        9.874810
  C           15.513557       22.578926       10.431160
  C           15.427163       23.696692        9.414628
  H           18.364759       21.898888        8.716751
  H           18.359529       22.652326       10.340822
  H           16.791693       20.817163       10.614074
  H           16.108085       21.075423        8.998221
  H           15.878383       22.969536       11.395902
  H           14.541129       22.116743       10.606854
  H           15.065202       24.636441        9.843528
  H           14.795712       23.409342        8.567988
  O           14.534276       11.124066       10.650963
  S           15.896218       10.655849       10.548551
  O           16.253691        9.507175        9.738946
  C           16.935105       12.031120       10.094300
  C           18.038621       12.059222       11.148512
  C           17.371568       11.680463       12.471155
  C           16.562597       10.433346       12.187493
  H           17.325645       11.890672        9.082246
  H           16.333400       12.942290       10.138109
  H           18.513801       13.044428       11.203951
  H           18.813438       11.322680       10.902619
  H           16.706846       12.500553       12.790525
  H           18.101263       11.516572       13.265375
  H           15.744646       10.284247       12.899410
  H           17.202982        9.545840       12.169059
  O           32.932228       17.689190       10.866722
  S           33.286158       17.142997       12.155522
  O           33.633483       17.991346       13.279074
  C           32.007926       16.007696       12.659720
  C           32.737891       14.705908       12.979720
  C           33.859184       14.583454       11.947486
  C           34.566959       15.921067       11.940729
  H           31.466767       16.407771       13.522035
  H           31.321919       15.871532       11.820046
  H           32.059255       13.847115       12.941950
  H           33.168589       14.753359       13.987464
  H           33.419822       14.380610       10.956418
  H           34.542822       13.765964       12.180828
  H           35.105826       16.113947       11.007713
  H           35.253904       16.005939       12.788670
  O           20.205533       15.702906       23.936978
  S           21.016573       14.633030       23.405773
  O           22.443466       14.783607       23.196004
  C           20.724813       13.166251       24.375534
  C           20.345034       12.090118       23.361825
  C           19.501766       12.790197       22.295716
  C           20.275116       14.029537       21.900537
  H           21.621213       12.906922       24.946248
  H           19.894678       13.367443       25.057148
  H           19.795808       11.269830       23.836146
  H           21.248006       11.671338       22.900778
  H           18.527983       13.071937       22.730193
  H           19.307927       12.144506       21.438040
  H           19.640247       14.808146       21.466015
  H           21.084486       13.782413       21.206310
  O           15.213235       29.130315       24.729160
  S           15.509876       29.781912       25.982964
  O           16.704054       29.471947       26.744909
  C           15.418633       31.545346       25.740117
  C           14.452657       32.043431       26.811893
  C           13.365837       30.974830       26.933199
  C           14.092998       29.653518       27.057985
  H           16.413378       31.990798       25.832606
  H           15.018630       31.731815       24.740403
  H           14.031228       33.019311       26.548162
  H           14.975079       32.147903       27.770779
  H           12.745326       30.982862       26.021442
  H           12.707437       31.155420       27.784078
  H           13.479445       28.798699       26.756425
  H           14.461126       29.502864       28.077733
  O           14.706906       21.946284       23.016947
  S           14.038619       20.751168       22.559027
  O           13.533982       19.752979       23.481882
  C           12.730043       21.225475       21.445627
  C           12.978600       20.417175       20.174890
  C           14.496239       20.361652       19.997434
  C           15.057387       19.942819       21.339034
  H           11.756131       21.011047       21.895090
  H           12.821400       22.296419       21.248311
  H           12.487547       20.872949       19.308497
  H           12.584048       19.400352       20.291932
  H           14.867053       21.364346       19.726324
  H           14.790618       19.673401       19.203865
  H           16.101557       20.240931       21.476649
  H           14.958979       18.862587       21.485714
  O           22.141373       36.199950       26.858208
  S           22.838512       34.936923       26.916180
  O           22.367200       33.837456       27.735775
  C           23.090548       34.352366       25.251316
  C           24.589133       34.080805       25.149350
  C           25.275920       35.183052       25.956304
  C           24.557133       35.234398       27.287059
  H           22.488979       33.456789       25.070881
  H           22.792354       35.146304       24.562156
  H           24.924609       34.075448       24.106792
  H           24.825403       33.102795       25.586354
  H           25.164568       36.143967       25.426546
  H           26.343216       34.994671       26.080768
  H           24.662150       36.199991       27.791739
  H           24.898767       34.432305       27.948899
  O            7.709389       26.263652       27.072819
  S            7.387408       25.802771       25.742963
  O            8.192589       26.160354       24.591218
  C            7.195459       24.031311       25.788634
  C            5.823897       23.765423       25.173800
  C            4.917550       24.900359       25.651563
  C            5.680774       26.180817       25.390571
  H            8.004785       23.549753       25.232224
  H            7.220697       23.712239       26.833506
  H            5.435035       22.785924       25.471906
  H            5.891672       23.784218       24.079107
  H            4.728424       24.783755       26.731856
  H            3.952254       24.894814       25.143359
  H            5.350352       27.010925       26.022901
  H            5.614260       26.469586       24.336868
  O            3.686638       28.833017        5.452658
  S            3.904127       27.838273        4.429046
  O            4.810048       28.064511        3.319620
  C            4.327388       26.297074        5.218069
  C            3.343618       25.277720        4.649725
  C            2.011082       26.012257        4.499385
  C            2.328124       27.308124        3.784952
  H            5.368740       26.038173        5.005804
  H            4.185086       26.414841        6.295139
  H            3.251014       24.403782        5.303297
  H            3.685999       24.931078        3.666915
  H            1.596658       26.221073        5.499909
  H            1.276193       25.419248        3.953145
  H            1.578930       28.086549        3.960628
  H            2.445936       27.144544        2.709098
  O           26.210928        8.792186        9.341855
  S           25.362594        7.665958        9.652566
  O           25.163877        7.207760       11.013913
  C           23.772434        7.927798        8.891100
  C           23.514761        6.668044        8.068590
  C           24.867485        6.257792        7.485809
  C           25.842509        6.276631        8.643036
  H           23.009476        8.091292        9.657694
  H           23.844352        8.805577        8.244159
  H           22.774566        6.848531        7.281802
  H           23.134082        5.867505        8.714749
  H           25.170972        6.991953        6.720758
  H           24.826999        5.278056        7.007710
  H           26.882301        6.396998        8.322968
  H           25.745679        5.372686        9.252632
  O           28.359686       16.516241       19.527826
  S           28.997652       17.350147       18.536765
  O           28.508687       17.433010       17.174141
  C           29.152686       18.998000       19.198239
  C           30.631150       19.347169       19.049493
  C           31.402364       18.058379       19.335932
  C           30.742324       16.983469       18.499801
  H           28.502201       19.686703       18.651377
  H           28.864496       18.971141       20.252006
  H           30.922715       20.152056       19.732608
  H           30.838371       19.680425       18.025139
  H           31.315173       17.813639       20.407800
  H           32.463696       18.156213       19.103331
  H           30.913950       15.974827       18.888758
  H           31.072353       17.038874       17.457635
  O           19.622294        6.392520       22.881892
  S           20.835705        5.652183       23.135142
  O           22.028003        5.834980       22.330338
  C           21.263497        5.837596       24.855496
  C           21.423682        4.413006       25.379696
  C           20.347275        3.580736       24.682218
  C           20.453913        3.911949       23.209422
  H           22.179957        6.426418       24.954935
  H           20.437793        6.345909       25.359509
  H           21.320883        4.373868       26.469375
  H           22.415952        4.024886       25.118807
  H           19.355946        3.873264       25.067048
  H           20.472508        2.512746       24.866102
  H           19.528022        3.715290       22.659740
  H           21.282545        3.368954       22.743992
  O           30.735483       22.205227       25.611450
  S           31.283980       21.170452       24.767062
  O           32.320869       21.445776       23.791481
  C           31.804821       19.814043       25.799476
  C           31.110883       18.584832       25.218623
  C           29.724632       19.051183       24.772949
  C           29.949435       20.306975       23.958917
  H           32.895023       19.725999       25.785000
  H           31.460479       20.008849       26.818141
  H           31.047198       17.776317       25.954659
  H           31.669891       18.210887       24.352035
  H           29.114604       19.279038       25.663089
  H           29.200434       18.286025       24.198623
  H           29.066311       20.952317       23.917379
  H           30.277103       20.063058       22.943418
  O           17.250335       22.162035       15.665637
  S           17.172796       21.127130       16.669409
  O           16.429627       21.307520       17.901424
  C           16.639119       19.617559       15.886220
  C           17.688337       18.578409       16.272497
  C           19.031469       19.308994       16.266152
  C           18.820769       20.574947       17.068131
  H           15.636159       19.348445       16.229947
  H           16.631688       19.778147       14.805315
  H           17.686660       17.731210       15.578414
  H           17.483774       18.192471       17.278730
  H           19.304448       19.558055       15.226994
  H           19.832657       18.696247       16.681773
  H           19.541277       21.361163       16.821488
  H           18.852124       20.368678       18.142640
  O           15.119838       33.319779       19.786100
  S           14.328320       32.238843       19.247882
  O           13.280166       32.467461       18.272277
  C           15.431395       30.982485       18.629990
  C           14.984009       29.692223       19.311876
  C           14.579485       30.082096       20.733902
  C           13.661318       31.276797       20.592975
  H           15.364937       30.925253       17.539665
  H           16.449352       31.245820       18.927679
  H           15.781799       28.941869       19.310799
  H           14.119533       29.268418       18.786167
  H           15.481277       30.360665       21.304490
  H           14.094136       29.259719       21.261380
  H           13.618437       31.891059       21.497929
  H           12.651150       30.964282       20.310141
  O           23.815761       10.143340       14.138194
  S           24.732469       11.238455       13.926131
  O           24.324801       12.621286       14.081964
  C           26.193982       10.951113       14.905118
  C           27.356117       11.049402       13.920393
  C           26.862978       10.418631       12.617803
  C           25.515037       11.045956       12.335460
  H           26.261374       11.690619       15.708292
  H           26.128542        9.945983       15.328949
  H           28.248017       10.541305       14.302296
  H           27.614018       12.101199       13.745722
  H           26.753770        9.330383       12.759897
  H           27.562412       10.577245       11.795774
  H           24.884259       10.428546       11.688139
  H           25.629886       12.042682       11.897914
  O           10.010595       15.255035       34.599727
  S           11.243333       14.853759       33.964168
  O           11.818844       15.603424       32.864400
  C           12.483430       14.629660       35.224699
  C           13.029256       13.222366       34.997770
  C           11.833150       12.365243       34.582476
  C           11.125589       13.138574       33.490908
  H           13.256153       15.398603       35.134552
  H           11.995976       14.704151       36.199911
  H           13.512645       12.830695       35.899118
  H           13.772956       13.232174       34.191473
  H           11.163929       12.231587       35.448894
  H           12.137937       11.374359       34.242839
  H           10.072877       12.858667       33.383445
  H           11.638941       13.021806       32.531254
  O           13.777349       20.760420        9.053875
  S           12.626358       20.175622        9.700273
  O           11.337752       20.840290        9.720576
  C           12.413243       18.516568        9.084545
  C           12.359716       17.635588       10.329901
  C           13.362532       18.234386       11.316613
  C           13.062482       19.716817       11.367305
  H           11.500606       18.451033        8.485129
  H           13.281364       18.266743        8.469603
  H           12.599717       16.593521       10.093267
  H           11.353649       17.660887       10.766351
  H           14.385892       18.066069       10.941373
  H           13.291017       17.773886       12.302982
  H           13.917019       20.313939       11.700939
  H           12.197267       19.920545       12.006052
  O           10.217485       35.810144       17.541182
  S           10.407548       34.635492       16.723460
  O           11.025469       33.430917       17.242952
  C            8.847925       34.209625       15.972984
  C            9.138918       34.121662       14.477162
  C           10.144678       35.232817       14.174538
  C           11.235990       35.101408       15.214717
  H            8.476635       33.266386       16.384014
  H            8.137437       35.012815       16.183439
  H            8.224569       34.232806       13.884614
  H            9.582516       33.147760       14.236258
  H            9.644446       36.211149       14.269589
  H           10.541880       35.160473       13.161080
  H           11.789685       36.032391       15.372175
  H           11.931444       34.297202       14.954534
  O           28.001749       11.929818       17.245364
  S           28.837604       13.034299       17.652877
  O           28.651416       13.709568       18.922541
  C           30.543209       12.538363       17.504691
  C           31.195188       13.614760       16.640867
  C           30.153669       14.005396       15.591847
  C           28.869309       14.254129       16.352604
  H           31.001052       12.461399       18.495124
  H           30.573957       11.567605       17.003809
  H           32.118075       13.250648       16.176968
  H           31.446209       14.489040       17.253993
  H           30.020668       13.170387       14.883700
  H           30.459322       14.881421       15.018039
  H           27.976398       14.148778       15.728336
  H           28.876896       15.242401       16.823093
  O           11.485940       10.432844       14.046110
  S           11.650389        9.673221       15.262880
  O           10.519354        9.281164       16.081262
  C           12.632093        8.230161       14.901167
  C           13.780080        8.269788       15.906382
  C           14.155792        9.743549       16.063451
  C           12.855905       10.481984       16.298415
  H           12.023195        7.326377       14.995596
  H           13.008071        8.320730       13.879092
  H           14.631122        7.670646       15.565418
  H           13.449001        7.869153       16.872394
  H           14.631908       10.097964       15.133879
  H           14.862866        9.900985       16.879146
  H           12.914076       11.542719       16.034678
  H           12.526962       10.376842       17.337088
  O           15.982807        4.911108        6.939901
  S           15.313420        5.486064        5.797120
  O           14.577087        4.671962        4.849623
  C           14.262814        6.809974        6.363241
  C           14.666639        8.021421        5.527047
  C           16.182636        7.929066        5.350908
  C           16.464056        6.511889        4.900783
  H           13.211163        6.540266        6.229874
  H           14.471652        6.982298        7.421962
  H           14.373263        8.958281        6.012561
  H           14.178699        7.981229        4.545416
  H           16.673290        8.125173        6.318999
  H           16.556896        8.662093        4.634876
  H           17.487905        6.190878        5.117082
  H           16.256480        6.390701        3.832923
  O           13.047089       23.746980        7.047601
  S           13.394857       24.559532        5.905929
  O           12.440659       25.456766        5.283692
  C           14.880120       25.467588        6.288588
  C           15.842739       25.151930        5.146823
  C           15.610703       23.683380        4.790005
  C           14.112926       23.521270        4.646529
  H           14.659250       26.535998        6.367443
  H           15.271138       25.097028        7.239372
  H           16.882341       25.337067        5.437427
  H           15.616385       25.782226        4.278036
  H           15.985401       23.047070        5.609218
  H           16.137212       23.395409        3.878983
  H           13.780043       22.488230        4.788369
  H           13.769482       23.890193        3.674911
  O           17.997904       36.211324       14.158262
  S           17.785464       35.160927       13.190721
  O           17.264478       35.432903       11.865088
  C           19.290043       34.217265       13.039913
  C           18.874069       32.767842       13.276636
  C           17.801486       32.806720       14.365605
  C           16.810876       33.867391       13.936806
  H           19.733667       34.370055       12.051807
  H           19.982878       34.553622       13.815183
  H           19.728230       32.150002       13.573594
  H           18.451192       32.342428       12.358215
  H           18.267891       33.087421       15.324810
  H           17.321047       31.836794       14.501695
  H           16.235554       34.276926       14.773099
  H           16.128729       33.481431       13.172732
  O           10.869849       29.615429       14.681707
  S           11.715533       30.125389       13.628446
  O           11.445949       29.855091       12.229530
  C           11.902390       31.883623       13.853606
  C           13.409798       32.123230       13.868019
  C           14.021763       30.931670       14.605233
  C           13.410224       29.696504       13.980265
  H           11.399895       32.422897       13.045408
  H           11.457410       32.153725       14.814458
  H           13.659443       33.071224       14.356368
  H           13.795457       32.158902       12.841717
  H           13.754387       30.989450       15.673677
  H           15.110430       30.922633       14.535791
  H           13.438755       28.824903       14.641778
  H           13.896995       29.455414       13.029987
  O           14.639153       27.217177       28.484652
  S           14.768397       25.811032       28.785736
  O           14.348589       24.784689       27.851347
  C           16.450075       25.490467       29.281918
  C           16.337589       24.786430       30.631576
  C           15.170046       25.451612       31.361079
  C           14.024512       25.482295       30.372640
  H           16.954815       24.877100       28.529908
  H           16.963713       26.449378       29.386156
  H           17.268439       24.866213       31.203112
  H           16.120828       23.721284       30.483995
  H           15.456183       26.478581       31.643677
  H           14.901257       24.918984       32.274403
  H           13.285766       26.257433       30.599607
  H           13.530855       24.507149       30.313538
  O            2.597914       23.307250       14.839318
  S            2.468285       23.355581       13.402147
  O            1.177430       23.283616       12.745478
  C            3.344772       24.787041       12.802404
  C            4.297256       24.250794       11.736986
  C            4.788929       22.896995       12.250102
  C            3.550723       22.138494       12.676389
  H            2.639271       25.521241       12.402756
  H            3.900920       25.221002       13.637016
  H            5.128760       24.941238       11.559821
  H            3.763060       24.113347       10.788807
  H            5.454037       23.056384       13.115333
  H            5.354875       22.353124       11.492468
  H            3.762635       21.352528       13.408135
  H            3.036236       21.708895       11.811029
  O           24.250389       28.608740       31.374487
  S           25.410732       27.837204       30.996418
  O           26.711822       28.065247       31.594633
  C           25.007287       26.106091       31.128623
  C           25.359650       25.512070       29.767417
  C           24.978681       26.570018       28.731363
  C           25.580857       27.868937       29.221664
  H           25.573217       25.648185       31.945045
  H           23.935601       26.019500       31.324048
  H           24.831095       24.568681       29.593784
  H           26.436784       25.312351       29.710908
  H           23.879936       26.653753       28.685009
  H           25.334041       26.311642       27.732834
  H           25.074639       28.752368       28.819926
  H           26.649571       27.918121       28.990294
  O           11.856785       26.917206       27.580928
  S           11.644060       25.510110       27.337152
  O           11.689919       24.530904       28.405680
  C           10.117479       25.315719       26.437840
  C           10.485016       24.491396       25.206861
  C           11.869035       24.973523       24.771151
  C           12.722028       24.975384       26.021191
  H            9.370258       24.821542       27.065494
  H            9.763188       26.308182       26.148538
  H            9.745444       24.613481       24.408344
  H           10.530797       23.426574       25.466396
  H           11.786385       25.995809       24.365563
  H           12.296159       24.340983       23.991691
  H           13.579831       25.651698       25.951387
  H           13.066670       23.964942       26.262705
  O           19.865377       24.127195       17.102804
  S           20.348948       24.918641       15.996290
  O           20.338855       26.368333       16.027806
  C           21.987734       24.359391       15.573659
  C           21.928642       24.052560       14.079583
  C           20.548566       23.445453       13.825399
  C           19.556506       24.371073       14.495656
  H           22.723685       25.132072       15.814161
  H           22.197732       23.453562       16.147744
  H           22.731024       23.370250       13.779357
  H           22.036282       24.977889       13.500375
  H           20.502884       22.443108       14.283241
  H           20.340561       23.333405       12.760374
  H           18.610016       23.878057       14.738952
  H           19.365128       25.254584       13.878499
  O           14.576769        8.045032       32.694921
  S           14.835920        8.687686       31.428258
  O           16.158934        8.708437       30.835043
  C           13.672750        8.065822       30.229375
  C           13.015025        9.307995       29.634140
  C           12.856203       10.298271       30.788232
  C           14.202240       10.353732       31.477657
  H           14.191583        7.464844       29.476954
  H           12.937327        7.451277       30.754436
  H           12.051072        9.068053       29.172922
  H           13.661227        9.743059       28.861843
  H           12.087286        9.923941       31.484684
  H           12.538928       11.282911       30.441937
  H           14.135748       10.690712       32.516947
  H           14.899766       10.991924       30.926052
  O           19.644084        6.394043       29.814756
  S           18.340002        6.023968       30.311762
  O           17.705815        6.734408       31.405280
  C           17.209654        5.949943       28.935596
  C           16.574837        4.564283       29.018389
  C           17.683316        3.616529       29.477556
  C           18.327194        4.278536       30.676458
  H           16.471925        6.754154       29.009758
  H           17.786745        6.057865       28.013903
  H           16.156005        4.257952       28.053900
  H           15.762493        4.565454       29.755543
  H           18.420762        3.499940       28.665779
  H           17.299117        2.625085       29.721545
  H           19.350259        3.933373       30.856183
  H           17.723615        4.130930       31.577572
  O           34.604019       25.752361       25.295432
  S           33.393114       25.671919       26.077633
  O           33.412256       25.709122       27.527098
  C           32.250897       26.903412       25.481171
  C           30.965317       26.138049       25.178840
  C           31.399652       24.789194       24.604606
  C           32.450800       24.252344       25.551749
  H           32.107602       27.682015       26.235985
  H           32.665756       27.340439       24.569524
  H           30.327641       26.688093       24.478612
  H           30.395547       25.978791       26.102582
  H           31.833903       24.943959       23.602671
  H           30.560713       24.099805       24.499606
  H           33.117332       23.523158       25.080451
  H           31.989393       23.810864       26.440737
  O           31.551642        7.910137       32.396852
  S           30.803172        9.035941       31.889943
  O           31.336945        9.913936       30.866756
  C           29.194137        8.462916       31.380385
  C           28.202649        9.361709       32.114567
  C           28.802531        9.613764       33.498189
  C           30.238713       10.027345       33.260419
  H           29.096317        8.531234       30.293066
  H           29.085364        7.423413       31.699449
  H           27.214126        8.895099       32.182367
  H           28.091873       10.314330       31.582081
  H           28.767634        8.680344       34.084627
  H           28.249647       10.374069       34.051684
  H           30.882054        9.853792       34.128804
  H           30.299908       11.077853       32.959111
  O           24.172994       17.688203       19.991063
  S           24.299049       18.493843       18.799570
  O           24.712518       17.927085       17.530504
  C           22.780828       19.397396       18.563781
  C           23.204810       20.858211       18.436660
  C           24.362505       21.050803       19.416685
  C           25.322200       19.909861       19.156999
  H           22.259491       19.033217       17.673792
  H           22.155523       19.250426       19.447858
  H           22.373410       21.536528       18.656113
  H           23.548830       21.063179       17.415416
  H           23.977433       20.996492       20.448756
  H           24.845819       22.021043       19.293637
  H           25.966286       19.690541       20.014409
  H           25.937427       20.107802       18.273588
  O           31.628390       28.660137       33.180385
  S           30.863945       29.787363       32.701233
  O           30.686665       30.048089       31.285855
  C           29.266262       29.764855       33.491107
  C           29.112067       31.150376       34.112762
  C           30.497494       31.540459       34.628735
  C           31.456805       31.273039       33.489258
  H           28.485604       29.545524       32.756963
  H           29.278511       28.992135       34.263734
  H           28.368266       31.147534       34.916661
  H           28.786153       31.870463       33.352134
  H           30.752601       30.909621       35.496700
  H           30.535420       32.581459       34.952742
  H           32.487757       31.124102       33.825494
  H           31.422050       32.079084       32.749539
  O           23.968445        2.221085       30.609153
  S           24.599626        2.760143       29.427786
  O           24.224856        2.331205       28.094272
  C           24.523997        4.539182       29.507159
  C           25.965304        5.005739       29.320448
  C           26.838877        3.989958       30.057237
  C           26.369602        2.626442       29.598100
  H           23.855211        4.923260       28.731460
  H           24.149776        4.821039       30.494436
  H           26.110947        6.019560       29.708334
  H           26.224808        5.010192       28.254644
  H           26.684939        4.099179       31.143872
  H           27.900391        4.140695       29.855830
  H           26.611023        1.830282       30.309398
  H           26.781293        2.380429       28.614185
  O           12.068987       13.622933        9.373655
  S           10.774243       13.439539        9.985704
  O           10.278937       12.127517       10.354445
  C           10.656995       14.521269       11.397480
  C            9.373929       15.318963       11.179934
  C            9.294346       15.593146        9.677839
  C            9.538959       14.263314        8.998198
  H           10.634842       13.935271       12.320852
  H           11.528643       15.180379       11.395582
  H            9.377348       16.247975       11.759955
  H            8.504824       14.727329       11.492864
  H           10.081081       16.313683        9.398061
  H            8.333663       16.022864        9.390557
  H            9.900998       14.369484        7.970699
  H            8.636113       13.644579        9.009919
  O           28.473303       36.198994       12.768327
  S           27.560402       35.085650       12.660256
  O           26.856722       34.787419       11.427944
  C           28.393383       33.613741       13.222952
  C           27.475252       33.021956       14.289125
  C           26.884822       34.210805       15.047961
  C           26.377295       35.168513       13.991831
  H           28.558212       32.930002       12.385198
  H           29.351940       33.908929       13.656810
  H           28.021143       32.347610       14.957526
  H           26.668047       32.449589       13.815715
  H           27.677926       34.689830       15.646225
  H           26.091377       33.906504       15.732027
  H           26.301144       36.199383       14.351844
  H           25.409498       34.841953       13.598351
  O           10.533155        4.737931        1.858131
  S           10.588912        5.687950        2.943928
  O           10.119839        5.358905        4.275994
  C           12.250272        6.323984        3.055020
  C           12.097393        7.841961        3.007328
  C           10.963297        8.123382        2.021211
  C            9.824026        7.213178        2.425922
  H           12.725185        5.979268        3.978129
  H           12.812234        5.963279        2.189982
  H           13.029283        8.328335        2.699883
  H           11.826586        8.224704        3.999030
  H           11.300992        7.879062        1.000099
  H           10.664538        9.172560        2.029610
  H            9.125421        7.014129        1.607124
  H            9.281039        7.621757        3.284018
  O           30.472836       19.033873        4.773018
  S           30.900794       20.332652        4.309741
  O           31.331479       20.556111        2.943258
  C           29.641424       21.524423        4.722860
  C           30.371736       22.622081        5.492073
  C           31.422715       21.913558        6.347199
  C           32.147624       20.966174        5.415980
  H           29.162401       21.897715        3.813085
  H           28.901145       21.032120        5.358333
  H           29.679884       23.207978        6.106537
  H           30.866760       23.306863        4.792555
  H           30.917896       21.347681        7.148036
  H           32.108161       22.618110        6.820348
  H           32.628294       20.135321        5.942042
  H           32.888636       21.499592        4.812270
  O           15.500409       34.601162       24.165401
  S           14.784807       33.996967       23.066555
  O           15.385885       32.978925       22.226915
  C           13.218455       33.398949       23.671465
  C           12.173500       34.023839       22.750877
  C           12.672717       35.434882       22.438562
  C           14.120308       35.282390       22.024525
  H           13.197631       32.305553       23.648011
  H           13.091909       33.751850       24.697938
  H           11.184715       34.040714       23.221535
  H           12.096556       33.446282       21.821465
  H           12.600448       36.055135       23.347663
  H           12.078670       35.916336       21.660481
  H           14.701252       36.200420       22.158034
  H           14.198091       34.943376       20.986682
  O           31.909743       26.511222       15.209348
  S           32.514480       27.811571       15.042062
  O           31.776302       28.937294       14.503044
  C           33.258481       28.293191       16.588511
  C           34.704267       28.638870       16.241941
  C           35.136330       27.634054       15.173547
  C           34.038006       27.635005       14.132451
  H           32.716900       29.139898       17.020111
  H           33.216151       27.438582       17.268256
  H           35.349773       28.590907       17.125412
  H           34.761375       29.656100       15.835393
  H           35.226360       26.634326       15.630534
  H           36.104298       27.888796       14.739677
  H           34.008727       26.713622       13.542285
  H           34.129887       28.498240       13.465755
  O            4.912099       32.318023       31.386658
  S            4.614707       31.004231       31.906377
  O            5.329774       30.447025       33.038146
  C            2.863103       30.902680       32.220337
  C            2.397228       29.658836       31.468199
  C            3.202498       29.622213       30.168968
  C            4.647828       29.825318       30.568929
  H            2.675912       30.836785       33.296031
  H            2.391133       31.800909       31.814590
  H            1.319737       29.688859       31.274261
  H            2.610243       28.759452       32.058989
  H            2.870393       30.443998       29.512634
  H            3.061315       28.686512       29.626169
  H            5.265920       30.212896       29.752936
  H            5.082783       28.897404       30.953495
  O           26.558548       13.880568       19.634841
  S           25.647001       13.086009       18.845945
  O           25.667331       13.108130       17.396187
  C           25.743448       11.395074       19.401318
  C           24.303147       10.997964       19.713945
  C           23.645468       12.234864       20.326592
  C           23.979310       13.385280       19.401773
  H           26.192127       10.768197       18.625295
  H           26.358322       11.367093       20.304283
  H           24.263332       10.140943       20.394702
  H           23.779563       10.721734       18.790442
  H           24.072524       12.415111       21.327359
  H           22.568015       12.110089       20.443326
  H           23.926587       14.359985       19.897020
  H           23.329136       13.382418       18.521224
  O            6.931256       17.683448       15.317230
  S            8.049796       17.136133       16.047925
  O            8.494457       17.701908       17.306844
  C            7.785910       15.386151       16.259882
  C            9.051620       14.726248       15.719135
  C            9.474799       15.552247       14.504044
  C            9.450943       16.997017       14.953790
  H            7.611136       15.156112       17.314887
  H            6.914476       15.098219       15.666672
  H            8.874118       13.678816       15.452906
  H            9.844081       14.753587       16.477131
  H            8.749358       15.395846       13.688156
  H           10.458600       15.260789       14.133520
  H            9.339375       17.700752       14.122882
  H           10.348742       17.243849       15.529230
  O           26.483395       24.412918       27.703756
  S           27.047325       23.447176       28.616951
  O           26.303638       22.941731       29.754560
  C           27.668158       22.069435       27.671753
  C           29.119326       21.906035       28.115953
  C           29.659600       23.320415       28.329105
  C           28.633420       24.034061       29.182256
  H           27.066957       21.176694       27.866867
  H           27.613864       22.330623       26.612021
  H           29.706270       21.357972       27.371222
  H           29.163994       21.348625       29.059668
  H           29.757622       23.822743       27.352142
  H           30.643642       23.316014       28.800001
  H           28.678820       25.123155       29.082696
  H           28.735923       23.754576       30.235575
  O            9.246450       22.448859       35.446027
  S            8.779852       22.380043       34.081421
  O            9.679698       22.531369       32.954444
  C            7.843938       20.876796       33.878171
  C            6.501856       21.320476       33.302093
  C            6.163893       22.645622       33.985881
  C            7.407883       23.500333       33.875621
  H            8.376655       20.187310       33.216868
  H            7.712004       20.421296       34.862708
  H            5.724594       20.568212       33.473744
  H            6.589433       21.476345       32.219810
  H            5.924955       22.456684       35.045886
  H            5.298706       23.131255       33.532326
  H            7.456077       24.284031       34.638245
  H            7.489675       23.947831       32.880053
  O            7.280979       13.774486       13.938740
  S            6.071698       13.023671       14.180642
  O            6.026457       11.926440       15.127604
  C            4.759687       14.169611       14.558064
  C            3.637654       13.822303       13.583220
  C            4.319611       13.453544       12.265362
  C            5.408768       12.465341       12.622280
  H            4.454923       14.063143       15.603187
  H            5.129316       15.182339       14.379302
  H            2.943403       14.659999       13.457594
  H            3.067370       12.962572       13.955965
  H            4.760379       14.360383       11.818409
  H            3.616331       13.036145       11.543367
  H            6.208811       12.424309       11.876393
  H            4.994986       11.463715       12.775997
  O           21.720873       14.315114        6.612087
  S           21.464798       15.137602        5.453408
  O           20.140933       15.255174        4.873532
  C           22.108444       16.770351        5.764621
  C           23.024624       17.067417        4.580448
  C           23.717502       15.747989        4.238643
  C           22.620332       14.708284        4.164948
  H           21.288306       17.489000        5.850751
  H           22.677146       16.740826        6.697308
  H           23.748880       17.852593        4.822219
  H           22.432290       17.405687        3.721371
  H           24.429635       15.493218        5.041362
  H           24.278418       15.810105        3.305040
  H           22.986699       13.689298        4.324766
  H           22.089699       14.764670        3.209255
  O            7.164429       18.798057       31.944894
  S            8.176234       17.843100       31.559009
  O            7.925467       16.820428       30.562034
  C            9.655767       18.733315       31.116856
  C           10.760641       18.113053       31.967990
  C           10.127017       17.801196       33.324112
  C            8.837560       17.068614       33.022744
  H            9.848162       18.636126       30.044458
  H            9.511134       19.785192       31.375382
  H           11.615821       18.789876       32.068376
  H           11.116156       17.184186       31.505266
  H            9.913347       18.746249       33.851008
  H           10.788630       17.209898       33.958726
  H            8.108001       17.136839       33.835880
  H            9.029540       16.017418       32.785612
  O           29.986118       33.702275       33.141127
  S           29.614162       34.931431       32.481261
  O           30.230450       36.199997       32.818352
  C           29.723486       34.683823       30.719518
  C           28.360561       35.103321       30.175131
  C           27.331001       34.640345       31.206372
  C           27.842028       35.117788       32.548423
  H           30.541915       35.279496       30.304974
  H           29.904988       33.622151       30.534827
  H           28.170745       34.663700       29.190142
  H           28.315051       36.194613       30.073590
  H           27.272195       33.539107       31.191641
  H           26.334227       35.028607       30.992375
  H           27.443371       34.538699       33.387368
  H           27.624161       36.180263       32.696006
  O           30.471620       12.984510       23.764822
  S           29.629653       14.142303       23.952456
  O           29.189748       14.565901       25.267655
  C           30.377868       15.527845       23.117321
  C           29.285934       16.075567       22.202128
  C           28.524698       14.858974       21.674659
  C           28.206789       14.009302       22.885936
  H           30.722993       16.266339       23.846715
  H           31.224080       15.157721       22.533256
  H           29.709320       16.671293       21.386435
  H           28.603721       16.718105       22.772241
  H           29.171295       14.300374       20.977322
  H           27.621635       15.144377       21.133252
  H           28.032272       12.958075       22.635803
  H           27.344503       14.407960       23.429660
  O           10.417678        8.254050       25.447664
  S            9.892584        7.525129       24.317376
  O           10.135111        6.106582       24.139597
  C            8.139918        7.831410       24.210819
  C            7.908733        8.317244       22.782387
  C            9.117200        9.184482       22.428400
  C           10.337106        8.376697       22.815067
  H            7.582869        6.917917       24.438255
  H            7.885518        8.611984       24.932059
  H            6.971433        8.877342       22.697191
  H            7.855870        7.462034       22.097462
  H            9.078057       10.118252       23.014012
  H            9.130785        9.455903       21.371875
  H           11.221116        8.997300       22.992492
  H           10.562923        7.619700       22.057398
  O            4.680341       25.913493       15.832256
  S            4.252786       27.072405       16.579731
  O            3.741435       26.966940       17.932542
  C            5.561916       28.281593       16.547467
  C            4.906331       29.561752       16.036292
  C            3.896204       29.126274       14.974312
  C            3.092915       28.005721       15.598242
  H            5.990483       28.400263       17.546840
  H            6.329879       27.934493       15.851798
  H            5.648550       30.255214       15.626752
  H            4.383279       30.070256       16.855523
  H            4.438086       28.757585       14.087276
  H            3.257907       29.950942       14.654001
  H            2.628246       27.349213       14.855827
  H            2.327145       28.400512       16.273398
  O           10.680927       11.924209       17.707586
  S            9.645284       11.606293       18.662035
  O            9.931594       10.909487       19.901062
  C            8.738541       13.095859       19.030830
  C            7.275832       12.743161       18.773956
  C            7.269372       11.823343       17.552607
  C            8.315925       10.764261       17.823293
  H            8.920581       13.401946       20.065080
  H            9.074948       13.878379       18.346219
  H            6.671465       13.640958       18.606023
  H            6.859239       12.210997       19.637989
  H            7.541483       12.406856       16.657136
  H            6.286489       11.384108       17.376217
  H            8.696010       10.296628       16.909535
  H            7.929956        9.994779       18.499330
  O           14.570266        5.448629       15.357025
  S           15.946177        5.851124       15.185369
  O           16.335237        6.861668       14.220935
  C           16.612349        6.285255       16.780595
  C           17.879695        5.446419       16.922327
  C           17.566177        4.092874       16.284031
  C           16.952651        4.400549       14.935283
  H           16.813425        7.359515       16.825716
  H           15.878606        6.011438       17.542727
  H           18.173008        5.339142       17.972070
  H           18.709142        5.923332       16.385790
  H           16.842497        3.552010       16.916607
  H           18.455971        3.468746       16.190062
  H           16.331816        3.584262       14.552741
  H           17.724481        4.653112       14.201395
  O            9.236763       35.052553       33.433535
  S            8.399318       33.921216       33.112037
  O            7.620748       33.865799       31.889966
  C            9.377494       32.437047       33.244001
  C            8.593295       31.528213       34.186843
  C            7.983701       32.443595       35.249043
  C            7.325434       33.577626       34.493492
  H            9.521754       31.991260       32.255587
  H           10.344793       32.703357       33.677144
  H            9.238113       30.764426       34.634436
  H            7.792899       31.016787       33.638108
  H            8.786840       32.833617       35.896539
  H            7.272035       31.915284       35.885062
  H            7.205911       34.481328       35.099410
  H            6.354453       33.270494       34.092285
  O           29.685595       26.601868       35.441581
  S           30.121720       25.721370       34.383698
  O           31.525889       25.460846       34.132426
  C           29.264700       24.167489       34.550940
  C           28.624780       23.919215       33.187575
  C           28.164886       25.286033       32.679532
  C           29.346540       26.214958       32.855573
  H           29.966820       23.378105       34.834490
  H           28.500177       24.280955       35.323487
  H           27.789967       23.213995       33.260044
  H           29.364413       23.498732       32.495162
  H           27.314209       25.632851       33.289831
  H           27.833574       25.246350       31.640899
  H           29.055883       27.268578       32.914773
  H           30.076931       26.077590       32.051981
  O           24.991715       19.508588       12.377715
  S           23.554185       19.555533       12.503827
  O           22.688588       19.732187       11.353942
  C           23.018845       18.121851       13.417591
  C           22.176241       18.674607       14.564055
  C           22.860271       19.967952       15.008082
  C           23.115231       20.759546       13.743735
  H           22.451956       17.449820       12.766813
  H           23.905603       17.610023       13.799549
  H           22.099591       17.955780       15.386802
  H           21.161165       18.896765       14.212534
  H           23.815240       19.722506       15.502238
  H           22.252914       20.528608       15.720039
  H           23.925601       21.487321       13.852102
  H           22.205253       21.266843       13.408040
  O           26.211870       15.287857       31.714963
  S           25.677005       14.654754       30.532720
  O           26.503544       13.853365       29.651069
  C           24.239470       13.709209       30.997950
  C           23.128342       14.195694       30.071329
  C           23.346358       15.699382       29.900470
  C           24.810590       15.871795       29.559150
  H           24.439496       12.639537       30.887080
  H           24.003383       13.937809       32.040161
  H           22.138135       13.976021       30.484529
  H           23.206427       13.699108       29.096340
  H           23.114469       16.210130       30.850082
  H           22.699631       16.121796       29.130138
  H           25.189582       16.870565       29.797736
  H           24.996618       15.648177       28.503931
  O           18.615607       13.467520       18.803210
  S           17.785817       12.927414       17.752337
  O           17.046605       13.781526       16.843074
  C           18.755245       11.771590       16.802980
  C           17.938817       10.481904       16.795588
  C           17.298025       10.377481       18.179886
  C           16.667348       11.726420       18.449718
  H           18.929853       12.162991       15.796592
  H           19.708905       11.624123       17.315802
  H           18.566909        9.612186       16.575157
  H           17.155008       10.536555       16.030109
  H           18.081086       10.167321       18.927581
  H           16.564943        9.571258       18.231796
  H           16.530946       11.927844       19.516921
  H           15.708875       11.822619       17.929935
  O            2.967743       10.968770        1.463949
  S            3.577983       10.531691        2.697306
  O            2.821597       10.417771        3.929216
  C            4.428108        8.994563        2.394778
  C            5.852713        9.225169        2.891992
  C            6.200141       10.669293        2.529226
  C            5.036161       11.510262        3.006847
  H            3.927573        8.176750        2.921226
  H            4.418652        8.805553        1.318495
  H            6.553930        8.515755        2.439746
  H            5.897017        9.098058        3.980652
  H            6.306186       10.753276        1.434648
  H            7.141041       10.989289        2.979127
  H            4.955716       12.466137        2.479654
  H            5.096029       11.686888        4.085419
  O           18.544175       19.528198       13.162453
  S           18.931974       18.175748       12.838277
  O           19.576321       17.309508       13.806341
  C           17.519985       17.330560       12.153484
  C           18.003804       16.767246       10.819881
  C           18.944885       17.818889       10.231481
  C           19.903170       18.188695       11.342847
  H           17.178621       16.549756       12.839279
  H           16.724959       18.064269       11.999197
  H           17.165593       16.554765       10.147755
  H           18.552878       15.831721       10.983008
  H           18.357880       18.701256        9.926103
  H           19.471495       17.449689        9.350304
  H           20.354066       19.176697       11.206298
  H           20.689697       17.435030       11.449916
  O           21.897844        9.257881        1.001332
  S           22.729451       10.091263        1.837098
  O           23.164204       11.408929        1.415853
  C           21.970062       10.217799        3.444679
  C           23.058163        9.801175        4.430763
  C           23.830580        8.667180        3.756057
  C           24.154586        9.156309        2.361076
  H           21.617700       11.239059        3.616051
  H           21.127755        9.522468        3.479791
  H           22.630474        9.484280        5.387925
  H           23.734111       10.643256        4.623882
  H           23.189652        7.771041        3.705596
  H           24.731703        8.399707        4.309713
  H           24.338559        8.340500        1.654882
  H           25.012760        9.835647        2.372787
  O           25.667042       27.369059       33.774473
  S           24.686266       27.692956       34.783319
  O           24.962331       27.540168       36.198644
  C           24.090794       29.346080       34.484000
  C           22.571489       29.214230       34.418984
  C           22.290599       27.887461       33.712878
  C           23.158003       26.856831       34.402523
  H           24.419611       30.016010       35.283733
  H           24.492170       29.685007       33.525759
  H           22.119201       30.057992       33.887005
  H           22.151856       29.188270       35.432165
  H           22.574561       27.974181       32.650689
  H           21.234200       27.618160       33.752860
  H           23.363499       25.983602       33.775354
  H           22.709499       26.535623       35.347917
  O            9.388582       24.368237        4.161165
  S            8.162540       25.127985        4.096327
  O            7.517653       25.646765        5.286994
  C            8.381366       26.457556        2.929555
  C            7.220261       26.318860        1.948485
  C            7.007065       24.817488        1.752960
  C            6.961362       24.218918        3.142141
  H            8.378242       27.419952        3.449443
  H            9.337933       26.311800        2.421683
  H            7.435598       26.822611        1.000136
  H            6.313355       26.767519        2.372191
  H            7.856994       24.400709        1.186995
  H            6.097130       24.603107        1.190680
  H            7.211490       23.153394        3.156063
  H            5.981588       24.374682        3.604612
  O           19.479352       10.315717       28.010302
  S           19.495333       10.463019       26.574111
  O           20.588881       11.117300       25.882179
  C           19.217597        8.863746       25.837778
  C           18.043660        9.065507       24.883280
  C           17.096669       10.045429       25.576649
  C           17.959102       11.197509       26.044753
  H           20.121365        8.522714       25.324551
  H           18.954409        8.162748       26.633727
  H           17.546202        8.116870       24.654977
  H           18.395862        9.499199       23.939265
  H           16.626766        9.546486       26.440736
  H           16.298456       10.381885       24.913509
  H           17.513140       11.754579       26.874747
  H           18.183417       11.880540       25.219374
  O            0.998714       18.670568        8.992847
  S            2.009384       18.340540        9.969692
  O            2.209673       19.136376       11.165196
  C            1.808448       16.632347       10.437349
  C            3.179472       15.997889       10.219052
  C            3.752041       16.647958        8.959141
  C            3.576993       18.139747        9.143868
  H            1.474926       16.562571       11.476770
  H            1.063309       16.183014        9.776238
  H            3.104674       14.910341       10.113482
  H            3.833672       16.211193       11.073349
  H            3.180304       16.303757        8.081052
  H            4.797624       16.380682        8.799702
  H            3.566189       18.688578        8.196890
  H            4.353227       18.547909        9.798821
  O            7.642061       18.968851       19.778389
  S            6.743349       19.829353       20.510818
  O            5.342275       19.953334       20.158227
  C            6.872279       19.438002       22.244952
  C            7.168187       20.769243       22.930615
  C            8.097132       21.534794       21.987857
  C            7.454971       21.460757       20.619520
  H            5.943266       18.981616       22.598714
  H            7.703340       18.740690       22.376463
  H            7.625912       20.619464       23.914259
  H            6.239078       21.335027       23.071845
  H            9.084099       21.042814       21.971949
  H            8.246075       22.566740       22.308796
  H            8.170750       21.604309       19.803951
  H            6.640426       22.186236       20.528429
  O           28.172316       15.721607       11.982499
  S           28.930364       16.304015       10.900481
  O           29.917871       15.543577       10.159358
  C           27.792513       17.052451        9.750638
  C           28.280503       18.489692        9.589071
  C           28.769703       18.929343       10.969357
  C           29.677360       17.822903       11.461444
  H           27.793289       16.500779        8.806097
  H           26.794223       17.029268       10.194573
  H           27.484326       19.142890        9.216330
  H           29.111926       18.527209        8.874489
  H           27.903776       19.039060       11.643547
  H           29.286155       19.889612       10.933835
  H           29.774403       17.803747       12.551543
  H           30.668785       17.895594       11.003304
  O           14.850926       18.056719       23.974998
  S           14.348699       17.123936       24.955958
  O           13.554379       15.970105       24.581219
  C           15.709237       16.585302       25.973706
  C           15.261475       16.853490       27.408100
  C           14.475841       18.164621       27.369194
  C           13.487637       18.024419       26.231655
  H           15.921040       15.527748       25.791441
  H           16.584258       17.189221       25.721082
  H           16.116956       16.915870       28.089100
  H           14.609131       16.043476       27.756848
  H           15.169992       18.998082       27.169451
  H           13.974947       18.369887       28.316332
  H           13.151253       18.988539       25.837422
  H           12.622194       17.426828       26.534957
  O           20.361694       25.473714       11.502547
  S           20.916251       26.436978       10.581032
  O           21.710029       26.034595        9.436172
  C           19.605970       27.511887       10.029002
  C           20.108505       28.925596       10.309690
  C           20.874128       28.849187       11.630970
  C           21.816666       27.672610       11.498727
  H           19.401155       27.342732        8.967900
  H           18.713263       27.292969       10.620058
  H           19.280899       29.640887       10.363796
  H           20.785463       29.250527        9.510035
  H           20.161195       28.674755       12.454195
  H           21.410618       29.774128       11.847218
  H           22.123571       27.261018       12.465424
  H           22.701797       27.942530       10.914103
  O           30.486456        4.366815       10.821835
  S           30.381283        5.757214       11.196441
  O           30.197154        6.168557       12.574699
  C           31.772435        6.635257       10.510339
  C           31.162063        7.794094        9.726475
  C           29.886452        7.247154        9.085015
  C           29.133781        6.540543       10.191536
  H           32.436497        6.974233       11.310725
  H           32.309409        5.956057        9.843596
  H           31.858802        8.179069        8.974245
  H           30.908839        8.616869       10.406342
  H           30.157429        6.530616        8.291577
  H           29.286988        8.036187        8.628757
  H           28.435564        5.785018        9.817672
  H           28.599402        7.257564       10.822742
  O           30.754434       18.124058       31.584323
  S           31.275954       19.235826       32.343658
  O           31.102646       19.332288       33.780098
  C           33.004884       19.426060       31.954283
  C           33.157869       20.885098       31.532734
  C           31.893057       21.234862       30.748058
  C           30.732557       20.760626       31.595725
  H           33.617472       19.174814       32.824978
  H           33.243626       18.755559       31.125048
  H           34.060444       21.034956       30.930737
  H           33.231031       21.527599       32.418815
  H           31.903933       20.699025       29.784128
  H           31.826674       22.302384       30.533374
  H           29.823938       20.580305       31.012633
  H           30.519764       21.469788       32.401894
  O            5.865757       20.755738       13.753422
  S            6.876340       21.535347       14.428352
  O            7.510046       22.678398       13.800220
  C            6.243341       22.025925       16.020723
  C            7.296122       21.564288       17.024936
  C            7.818854       20.224460       16.505885
  C            8.143568       20.442228       15.043922
  H            6.085206       23.107968       16.046706
  H            5.295849       21.507073       16.185807
  H            6.874717       21.470307       18.031457
  H            8.118703       22.288706       17.068274
  H            7.029354       19.461490       16.610599
  H            8.689340       19.880020       17.065989
  H            8.141701       19.514154       14.463599
  H            9.106521       20.949336       14.927035
  O           19.938221       26.159927        7.192899
  S           19.864009       27.061352        6.067499
  O           20.282829       26.663895        4.737342
  C           18.211752       27.724362        5.981105
  C           18.393750       29.239650        5.954991
  C           19.564685       29.542510        6.890398
  C           20.673219       28.592867        6.490985
  H           17.700457       27.348125        5.090306
  H           17.672142       27.413835        6.879211
  H           17.481520       29.757536        6.269843
  H           18.638636       29.572255        4.938770
  H           19.256449       29.350794        7.931856
  H           19.882068       30.584177        6.824848
  H           21.394702       28.416921        7.295103
  H           21.194969       28.951894        5.598250
  O            1.790687       16.812940        3.493465
  S            2.919278       15.918821        3.600392
  O            4.022668       15.960393        2.660444
  C            3.566002       16.019103        5.258310
  C            3.600692       14.577209        5.757950
  C            2.351375       13.901763        5.191575
  C            2.326753       14.241017        3.716956
  H            4.556266       16.483644        5.249437
  H            2.877820       16.620764        5.857151
  H            3.622034       14.533456        6.852084
  H            4.496919       14.069297        5.380985
  H            1.458216       14.312704        5.691369
  H            2.357957       12.823621        5.357905
  H            1.325239       14.174046        3.280396
  H            3.017848       13.603949        3.156035
  O           17.667686        6.475667        7.381758
  S           19.046929        6.889480        7.276658
  O           19.875293        6.517933        6.145965
  C           19.126378        8.656349        7.497706
  C           20.148694        8.870825        8.610707
  C           19.938832        7.728747        9.605400
  C           19.902275        6.460056        8.781211
  H           19.418129        9.140869        6.561426
  H           18.138111        9.006395        7.805922
  H           20.022176        9.848927        9.086952
  H           21.165755        8.821634        8.202703
  H           18.976889        7.872316       10.125452
  H           20.723548        7.696029       10.362534
  H           19.376207        5.641059        9.281807
  H           20.912917        6.139033        8.509832
  O           21.729384       23.757890       19.497748
  S           20.756665       23.558796       20.545976
  O           21.136938       23.498156       21.943980
  C           19.458432       24.764296       20.350114
  C           18.166148       23.952712       20.314997
  C           18.490453       22.671655       19.545895
  C           19.763733       22.129332       20.158139
  H           19.481200       25.480751       21.176355
  H           19.615904       25.284266       19.401940
  H           17.354268       24.513785       19.840077
  H           17.851962       23.700231       21.335213
  H           18.654101       22.917637       18.483298
  H           17.677008       21.946537       19.597011
  H           20.316441       21.471170       19.480321
  H           19.555710       21.603945       21.095579
  O           27.578978       25.515594       13.491369
  S           28.778046       26.189504       13.930325
  O           29.129525       26.293849       15.333277
  C           30.164904       25.519082       13.033576
  C           30.861869       26.729905       12.418721
  C           29.750003       27.693395       12.002500
  C           28.834628       27.815886       13.201367
  H           30.816674       24.959155       13.710465
  H           29.779470       24.856394       12.254804
  H           31.486141       26.441853       11.566189
  H           31.507027       27.211770       13.163622
  H           29.200847       27.266219       11.146726
  H           30.143036       28.663071       11.693705
  H           27.821954       28.134061       12.934240
  H           29.252765       28.500389       13.946160
  O            9.391232       11.101615       34.518500
  S            8.529503       10.320730       33.662789
  O            8.511610        8.871506       33.708944
  C            6.862015       10.926792       33.833593
  C            6.401425       11.226132       32.409461
  C            7.620239       11.791048       31.679281
  C            8.759476       10.838906       31.972136
  H            6.236983       10.177205       34.327509
  H            6.890782       11.840601       34.432196
  H            5.563086       11.930830       32.400034
  H            6.073005       10.302242       31.917659
  H            7.850132       12.793304       32.078070
  H            7.444372       11.892880       30.607460
  H            9.743874       11.304517       31.861382
  H            8.698762        9.947797       31.339414
  O           26.162015       11.470870        7.190119
  S           25.632137       11.843403        8.480487
  O           25.790036       10.997771        9.647823
  C           26.201239       13.486176        8.873451
  C           24.936280       14.276986        9.196555
  C           23.863629       13.775293        8.229329
  C           23.908308       12.264508        8.305037
  H           26.900500       13.452135        9.713912
  H           26.699461       13.894865        7.990870
  H           25.100906       15.354763        9.092650
  H           24.622310       14.080160       10.229019
  H           24.109066       14.112379        7.208283
  H           22.874715       14.163062        8.477893
  H           23.501023       11.780311        7.411856
  H           23.384266       11.900403        9.194367
  O           31.163115       12.553282       21.708775
  S           31.004216       11.314422       20.984500
  O           31.856093       10.966259       19.863880
  C           31.007393        9.969977       22.154738
  C           29.728807        9.188587       21.863965
  C           28.665844       10.229921       21.512492
  C           29.300688       11.143068       20.486171
  H           31.908026        9.362173       22.028508
  H           30.982439       10.394011       23.161601
  H           29.428233        8.579421       22.723076
  H           29.883353        8.517422       21.010177
  H           28.403165       10.800854       22.418822
  H           27.751960        9.770146       21.133647
  H           28.829401       12.130075       20.443678
  H           29.288852       10.684700       19.492260
  O           32.034441        8.614977       14.197751
  S           33.050779        9.597265       14.492316
  O           33.066929       10.333542       15.741450
  C           34.649597        8.851435       14.238313
  C           35.377854        9.791599       13.281424
  C           34.322149       10.296731       12.297489
  C           33.152675       10.756196       13.140948
  H           35.170070        8.740291       15.193956
  H           34.499684        7.870916       13.779719
  H           36.198177        9.280870       12.765939
  H           35.800842       10.638974       13.834901
  H           34.013541        9.467737       11.638754
  H           34.703404       11.099158       11.664357
  H           32.206426       10.762980       12.590796
  H           33.340463       11.747405       13.565612
  O           12.806682       18.363866       14.616975
  S           13.127768       16.972471       14.403612
  O           12.368610       16.141436       13.489413
  C           14.859265       16.846417       13.999844
  C           15.424246       15.831792       14.990415
  C           14.703483       16.085200       16.314834
  C           13.228694       16.147338       15.981164
  H           14.982021       16.530184       12.959926
  H           15.316229       17.828126       14.146920
  H           16.509388       15.936629       15.095188
  H           15.214063       14.811730       14.646037
  H           15.039837       17.048867       16.732701
  H           14.918392       15.310738       17.052481
  H           12.646250       16.701938       16.723645
  H           12.811236       15.142892       15.859032
  O            7.524794        1.867761       15.100712
  S            8.262507        2.162422       13.895077
  O            7.865965        1.633466       12.604473
  C            8.450638        3.930037       13.764137
  C            9.950088        4.157144       13.591020
  C           10.641273        3.122791       14.479939
  C            9.987242        1.795899       14.160878
  H            7.868829        4.309715       12.919245
  H            8.094757        4.380807       14.693844
  H           10.234139        5.178772       13.865051
  H           10.237476        3.994586       12.544940
  H           10.474580        3.384245       15.538360
  H           11.718677        3.092886       14.311400
  H           10.087044        1.065520       14.970005
  H           10.385405        1.375318       13.232073
  O           21.598408       29.854853       20.003974
  S           20.433684       30.080727       19.181175
  O           20.150151       31.374861       18.591662
  C           20.394778       28.839996       17.902085
  C           19.010642       28.205255       18.007780
  C           18.687181       28.138939       19.500688
  C           18.983994       29.516381       20.052734
  H           20.571773       29.299520       16.925350
  H           21.175607       28.105753       18.115142
  H           18.989620       27.212387       17.545968
  H           18.268793       28.831979       17.497704
  H           19.337934       27.388643       19.980246
  H           17.652405       27.845277       19.682626
  H           19.181545       29.511109       21.129324
  H           18.169246       30.212513       19.829831
  O           15.806514       31.530136       12.212606
  S           16.360594       31.569907       10.879935
  O           17.730183       31.179753       10.606607
  C           15.273636       30.673883        9.787844
  C           14.964854       31.645208        8.651586
  C           14.848684       33.027441        9.294810
  C           16.070595       33.181605       10.174222
  H           15.761185       29.759703        9.437032
  H           14.365352       30.422694       10.341130
  H           14.045454       31.366381        8.125792
  H           15.784950       31.645767        7.923065
  H           13.932077       33.067238        9.906896
  H           14.784616       33.821584        8.549604
  H           15.929801       33.913587       10.975771
  H           16.950478       33.448435        9.580331
  O           35.608440       12.381320       25.424377
  S           34.466959       13.092106       25.950118
  O           34.224576       14.488373       25.642888
  C           32.996915       12.153845       25.581829
  C           32.293895       11.975464       26.924902
  C           33.400943       11.769114       27.959148
  C           34.406601       12.874161       27.718891
  H           32.380430       12.688981       24.853766
  H           33.302410       11.187761       25.172498
  H           31.599102       11.129120       26.903366
  H           31.721390       12.877608       27.173245
  H           33.871182       10.784869       27.796250
  H           33.016225       11.788041       28.979802
  H           35.405893       12.630451       28.093218
  H           34.066650       13.816817       28.159269
  O           34.918938       32.741763       11.153922
  S           34.366750       31.464425       11.538756
  O           34.491039       30.950360       12.888937
  C           32.651041       31.421166       11.057640
  C           32.505332       30.151100       10.223614
  C           33.794192       30.027367        9.410391
  C           34.927711       30.216670       10.395021
  H           32.010650       31.416139       11.944417
  H           32.443640       32.307904       10.453587
  H           31.622865       30.196568        9.576556
  H           32.399228       29.279057       10.880563
  H           33.818418       30.821344        8.645267
  H           33.862633       29.068163        8.895275
  H           35.856340       30.546185        9.918399
  H           35.109770       29.300068       10.964929
  O           20.702649       19.584550       30.466790
  S           19.636215       19.700812       31.433123
  O           19.871358       19.554124       32.856461
  C           18.773812       21.233480       31.142968
  C           17.305670       20.841064       30.999897
  C           17.293799       19.508468       30.250333
  C           18.296962       18.623591       30.958044
  H           18.943919       21.925022       31.973228
  H           19.151838       21.667046       30.213820
  H           16.736518       21.609397       30.465826
  H           16.852309       20.710618       31.990224
  H           17.605256       19.676616       29.205766
  H           16.300347       19.058124       30.231816
  H           18.680312       17.819631       30.321812
  H           17.870052       18.199657       31.872444
  O           10.067884       17.186718        3.509833
  S            9.966794       17.975181        2.304550
  O           10.279419       17.425352        0.999692
  C            8.347421       18.717757        2.247880
  C            8.602521       20.210475        2.056526
  C            9.844481       20.538383        2.885869
  C           10.876599       19.493401        2.521253
  H            7.762136       18.284468        1.431668
  H            7.851564       18.528219        3.203076
  H            7.739180       20.807156        2.369760
  H            8.798170       20.426751        0.999054
  H            9.594313       20.468123        3.957727
  H           10.208443       21.549077        2.695791
  H           11.638374       19.357755        3.295461
  H           11.357412       19.732654        1.567483
  O            6.574533        5.384950       20.540471
  S            5.635673        5.321859       19.445408
  O            6.045695        4.955975       18.103503
  C            4.264733        4.292667       19.933556
  C            3.022396        5.144768       19.687744
  C            3.407217        6.575169       20.066776
  C            4.721949        6.851280       19.370040
  H            4.260879        3.367661       19.349733
  H            4.372834        4.061838       20.996210
  H            2.169698        4.787390       20.274845
  H            2.743415        5.107094       18.627532
  H            3.535523        6.639021       21.160330
  H            2.639322        7.295159       19.780327
  H            5.299560        7.648168       19.849034
  H            4.563510        7.092980       18.314304
  O           19.775789       12.244247        5.649236
  S           18.799705       12.461272        6.690755
  O           17.735282       11.512474        6.954358
  C           19.662162       12.802549        8.212825
  C           19.074586       14.118945        8.714578
  C           18.826051       14.973776        7.471479
  C           18.087305       14.084214        6.495193
  H           19.516775       11.981641        8.920972
  H           20.725133       12.913962        7.985050
  H           19.750917       14.616579        9.417740
  H           18.124441       13.934898        9.230961
  H           19.794493       15.284640        7.045000
  H           18.260058       15.877303        7.702541
  H           18.194987       14.409752        5.455708
  H           17.025725       14.015278        6.752865
  O            5.094632       16.760423       16.100708
  S            4.568387       17.267886       17.345757
  O            5.082687       16.833100       18.629952
  C            4.590153       19.049149       17.285543
  C            3.162510       19.474315       17.618665
  C            2.247449       18.444314       16.955671
  C            2.794261       17.088507       17.346803
  H            5.321513       19.441723       17.997931
  H            4.858647       19.352951       16.270744
  H            2.953624       20.488458       17.261760
  H            3.008468       19.458845       18.704635
  H            2.291507       18.570809       15.860930
  H            1.207203       18.563877       17.261765
  H            2.504962       16.294793       16.650796
  H            2.487239       16.819562       18.362434
  O           20.335072       32.642929       31.005193
  S           21.491619       32.197550       31.745893
  O           21.465672       32.040266       33.187173
  C           22.089552       30.688860       31.008785
  C           23.566658       30.946028       30.722563
  C           23.664676       32.405378       30.277040
  C           22.893448       33.206824       31.303242
  H           21.934976       29.848383       31.691578
  H           21.538020       30.520756       30.080478
  H           23.950319       30.263746       29.956537
  H           24.158329       30.798823       31.634460
  H           23.200107       32.513434       29.282606
  H           24.699824       32.740453       30.197708
  H           22.545249       34.170459       30.918189
  H           23.489739       33.363794       32.207619
  O            9.727398        4.557250       33.661353
  S           10.399338        4.929443       34.883879
  O            9.786122        4.740918       36.184311
  C           12.016759        4.180515       34.891597
  C           12.986109        5.333563       35.138053
  C           12.422764        6.532127       34.373927
  C           10.959940        6.617074       34.752253
  H           12.072992        3.412279       35.668225
  H           12.189472        3.731442       33.910423
  H           13.998908        5.082741       34.805147
  H           13.029515        5.566927       36.209014
  H           12.525655        6.353011       33.290539
  H           12.955112        7.454713       34.609599
  H           10.356962        7.147419       34.008444
  H           10.834772        7.087104       35.732817
  O            9.091593       36.202743       10.864009
  S            9.495897       34.920160       10.338540
  O            8.880422       33.682739       10.777494
  C            9.441756       34.994973        8.558520
  C           10.825406       34.541374        8.100634
  C           11.816635       35.114312        9.114048
  C           11.266514       34.762668       10.479300
  H            8.642659       34.352140        8.178115
  H            9.256800       36.031542        8.266087
  H           11.043217       34.885995        7.084123
  H           10.884033       33.446009        8.106913
  H           11.865961       36.209601        8.994427
  H           12.823306       34.719297        8.970255
  H           11.632412       35.424929       11.270266
  H           11.489028       33.722153       10.736043
  O           33.704700        7.435662       16.189267
  S           32.847310        6.961671       17.249839
  O           33.295342        6.896910       18.627436
  C           31.311137        7.863069       17.181626
  C           30.225185        6.791755       17.127808
  C           30.783769        5.664714       16.258577
  C           32.170995        5.376947       16.790549
  H           31.215962        8.512907       18.056356
  H           31.308583        8.464279       16.269080
  H           29.290133        7.190215       16.719879
  H           30.020259        6.412002       18.136318
  H           30.841362        6.007827       15.211984
  H           30.149982        4.777102       16.282222
  H           32.821526        4.900611       16.050270
  H           32.124934        4.760061       17.693561
  O            3.887411       29.799115       11.703549
  S            4.774658       29.812104       10.564592
  O            5.777872       30.843680       10.385391
  C            5.556094       28.215179       10.437357
  C            5.285000       27.754205        9.007703
  C            3.869641       28.224784        8.671377
  C            3.809794       29.683303        9.070554
  H            6.624720       28.299758       10.655041
  H            5.081258       27.544625       11.157834
  H            5.382041       26.667441        8.912689
  H            6.001182       28.219795        8.319510
  H            3.143020       27.639395        9.259374
  H            3.631754       28.084823        7.615953
  H            2.789869       30.032088        9.260820
  H            4.282004       30.317172        8.313370
  O           15.535226       30.686310       29.589453
  S           16.420050       30.510393       30.716724
  O           16.240484       31.243828       31.954677
  C           16.529047       28.769795       31.084742
  C           18.023373       28.458553       31.089028
  C           18.635868       29.303160       29.971312
  C           18.106642       30.706653       30.172124
  H           16.053784       28.557182       32.046730
  H           16.020577       28.220282       30.288692
  H           18.209852       27.390262       30.935798
  H           18.465132       28.745010       32.051364
  H           18.306291       28.908363       28.995651
  H           19.726317       29.276367       29.988727
  H           18.129577       31.306343       29.256730
  H           18.655140       31.223093       30.966190
  O           10.956283       27.746512       30.995003
  S            9.965613       28.377588       31.834596
  O           10.174765       29.690386       32.413834
  C            8.404157       28.365266       30.975118
  C            7.421607       27.718404       31.947777
  C            8.198638       26.612974       32.663352
  C            9.491158       27.247220       33.129532
  H            8.115197       29.384625       30.703252
  H            8.515444       27.756954       30.074135
  H            6.544435       27.321739       31.425545
  H            7.074407       28.457731       32.679998
  H            8.410145       25.798148       31.950805
  H            7.634257       26.188346       33.494775
  H           10.290662       26.517281       33.291030
  H            9.334831       27.832052       34.041472
  O           13.996996       21.094223       17.723947
  S           13.506893       20.308204       16.616439
  O           13.530385       18.858443       16.634882
  C           11.858050       20.856250       16.218994
  C           11.895896       21.176767       14.727104
  C           13.267219       21.798603       14.461406
  C           14.275762       20.876158       15.111125
  H           11.132096       20.074826       16.461616
  H           11.647051       21.755038       16.803682
  H           11.083771       21.854382       14.442868
  H           11.789406       20.255642       14.141024
  H           13.309565       22.797245       14.927582
  H           13.461017       21.921922       13.394947
  H           15.220727       21.375586       15.347160
  H           14.467410       19.999898       14.483798
  O           29.141496       31.014307        9.999449
  S           27.839761       30.973375        9.376222
  O           27.274322       32.127262        8.704267
  C           27.784143       29.574895        8.272519
  C           26.546086       28.787300        8.693007
  C           26.478919       28.884501       10.217421
  C           26.649478       30.351152       10.549153
  H           27.731708       29.915550        7.234393
  H           28.690418       28.983631        8.425065
  H           26.601163       27.746292        8.357197
  H           25.646575       29.237391        8.255287
  H           27.303266       28.297114       10.655402
  H           25.542584       28.487410       10.612003
  H           27.014955       30.518634       11.567228
  H           25.714269       30.899261       10.397296
  O            8.640883       21.043742       29.794704
  S            9.433346       21.725422       28.798755
  O            9.177122       23.103058       28.425704
  C           11.154438       21.551716       29.228485
  C           11.819106       20.980317       27.978837
  C           10.815676       19.996132       27.376918
  C            9.494237       20.731461       27.319554
  H           11.570423       22.520866       29.518663
  H           11.228611       20.849815       30.062771
  H           12.769185       20.491365       28.219203
  H           12.023646       21.783444       27.260191
  H           10.732266       19.114772       28.034677
  H           11.126310       19.646293       26.391414
  H            8.631869       20.057839       27.293962
  H            9.459281       21.409465       26.460957
  O           27.108153       20.159607       25.469321
  S           26.051956       19.296219       25.942194
  O           25.347680       19.554578       27.183139
  C           24.861196       19.088590       24.632239
  C           24.713389       17.578390       24.466863
  C           26.108906       16.989989       24.676903
  C           26.635109       17.611130       25.952636
  H           23.918579       19.575385       24.898705
  H           25.269958       19.540077       23.724896
  H           24.311444       17.321436       23.481005
  H           24.028270       17.181496       25.226064
  H           26.752099       17.267830       23.825136
  H           26.089200       15.900864       24.736217
  H           27.727980       17.601065       26.012900
  H           26.211791       17.117587       26.833157
  O            5.812497       35.008262        4.477327
  S            4.882924       34.419605        5.412194
  O            3.934473       35.222548        6.159471
  C            4.006359       33.105009        4.587288
  C            4.193437       31.882061        5.481324
  C            5.619072       31.969493        6.026961
  C            5.778648       33.380189        6.551051
  H            2.953873       33.374770        4.460783
  H            4.470027       32.946149        3.610571
  H            4.030257       30.952122        4.926268
  H            3.478490       31.910287        6.312801
  H            6.333551       31.785184        5.207236
  H            5.806384       31.226543        6.803518
  H            6.823723       33.702226        6.598056
  H            5.314027       33.487796        7.536266
  O           25.808528       17.598707        5.551092
  S           26.591274       16.385735        5.526452
  O           26.219071       15.216716        6.299472
  C           26.835469       15.903857        3.827875
  C           28.345580       15.742269        3.675057
  C           28.978303       16.847837        4.520741
  C           28.295460       16.782765        5.869700
  H           26.291332       14.978851        3.616266
  H           26.464697       16.708608        3.188262
  H           28.651144       15.812209        2.625658
  H           28.660007       14.762408        4.054937
  H           28.787005       17.823953        4.044294
  H           30.059018       16.727927        4.608925
  H           28.348765       17.726928        6.420895
  H           28.709339       15.974264        6.480545
  O           33.689031        6.150820       26.582198
  S           33.005991        6.513589       27.801401
  O           33.556253        6.210497       29.108324
  C           32.603273        8.248448       27.730105
  C           31.102934        8.318413       28.002108
  C           30.488974        7.101407       27.309469
  C           31.327849        5.914697       27.731618
  H           33.189557        8.802430       28.468939
  H           32.832671        8.610912       26.725020
  H           30.672236        9.254186       27.630182
  H           30.912638        8.263069       29.081008
  H           30.546367        7.238245       26.216591
  H           29.438685        6.967486       27.572257
  H           31.265728        5.077019       27.029809
  H           31.052701        5.576850       28.735736
  O           10.807988       10.575539       25.775398
  S           11.223033       11.517696       24.763135
  O           10.332122       11.945845       23.702161
  C           11.896092       12.956896       25.571031
  C           13.277784       13.149207       24.951479
  C           13.844102       11.745785       24.733555
  C           12.753687       10.960030       24.038009
  H           11.241840       13.819042       25.412408
  H           11.976482       12.742054       26.639478
  H           13.926081       13.749865       25.598334
  H           13.189880       13.664703       23.987199
  H           14.075352       11.291618       25.711643
  H           14.765311       11.762310       24.149431
  H           12.852851        9.878696       24.175790
  H           12.721175       11.195064       22.969457
  O            6.476056        7.075463       32.676939
  S            5.528150        6.842110       33.740715
  O            5.939735        6.747581       35.127929
  C            4.218084        8.043104       33.605288
  C            2.930640        7.223590       33.577264
  C            3.246118        5.965437       32.767742
  C            4.536168        5.416297       33.337319
  H            4.254522        8.737823       34.449408
  H            4.351095        8.588824       32.667899
  H            2.104793        7.791143       33.135267
  H            2.640816        6.942266       34.597145
  H            3.384547        6.240309       31.708647
  H            2.438738        5.233489       32.817637
  H            5.077966        4.780038       32.630405
  H            4.352415        4.865086       34.264951
  O            6.190203       36.198943       11.028299
  S            5.217742       35.202476       10.646233
  O            4.672140       35.137941        9.304275
  C            5.847181       33.596132       11.093968
  C            4.745968       32.960354       11.938371
  C            4.149358       34.090321       12.778032
  C            3.870230       35.222918       11.813920
  H            6.073883       33.015834       10.194879
  H            6.755706       33.738143       11.684405
  H            5.139128       32.154628       12.567443
  H            3.970868       32.535512       11.288734
  H            4.885852       34.408008       13.535034
  H            3.246923       33.776441       13.304522
  H            3.824752       36.200001       12.305185
  H            2.944507       35.045533       11.257438
  O           26.688228        6.250670       23.447118
  S           26.474010        6.703269       24.801321
  O           26.756673        5.859209       25.946032
  C           27.304585        8.265915       25.014120
  C           26.234231        9.214008       25.548312
  C           24.938280        8.839549       24.828526
  C           24.813643        7.336272       24.950282
  H           28.147296        8.154482       25.702538
  H           27.663599        8.597351       24.036644
  H           26.504362       10.261008       25.374185
  H           26.109834        9.071360       26.628811
  H           25.015287        9.130115       23.767375
  H           24.072771        9.352087       25.250781
  H           24.181638        6.896148       24.172490
  H           24.436259        7.052403       25.937753
  O           10.785886       23.272705       18.142841
  S           11.538337       23.997092       17.146005
  O           11.458356       23.668700       15.735877
  C           11.223674       25.739104       17.354287
  C           12.604010       26.379362       17.475299
  C           13.458956       25.396370       18.275671
  C           13.254325       24.043728       17.628612
  H           10.656078       26.124379       16.502290
  H           10.651048       25.874651       18.275116
  H           12.549585       27.357768       17.964440
  H           13.041688       26.522184       16.479639
  H           13.106248       25.375479       19.320449
  H           14.511262       25.683829       18.286546
  H           13.468339       23.210337       18.305191
  H           13.858385       23.947422       16.720902
  O            3.920877        2.914217       10.608910
  S            3.792497        4.184122       11.283786
  O            3.326591        4.281279       12.653528
  C            5.335012        5.064298       11.132335
  C            4.959640        6.424195       10.549516
  C            3.835213        6.160604        9.547527
  C            2.829494        5.290310       10.269550
  H            5.819973        5.146341       12.109362
  H            5.977425        4.510747       10.443070
  H            5.819837        6.906321       10.072951
  H            4.596737        7.087524       11.344246
  H            4.244720        5.624756        8.674846
  H            3.383378        7.085657        9.186664
  H            2.200490        4.709474        9.587579
  H            2.198964        5.888459       10.934944
  O           20.401249       22.986163        9.328646
  S           20.582295       21.635177        8.852557
  O           19.899446       20.509607        9.460432
  C           20.289315       21.610320        7.094563
  C           21.536114       20.966171        6.494177
  C           22.716730       21.473942        7.322496
  C           22.326396       21.273072        8.770767
  H           19.378137       21.047560        6.871949
  H           20.182566       22.642480        6.751853
  H           21.647307       21.221000        5.434838
  H           21.472106       19.874081        6.575064
  H           22.871147       22.546165        7.115389
  H           23.642952       20.952114        7.077732
  H           22.870743       21.931881        9.454695
  H           22.464683       20.230337        9.073558
  O            4.871290       13.706381       27.267836
  S            5.708104       14.522977       26.420774
  O            5.860160       14.253910       25.004024
  C            5.241836       16.229299       26.639999
  C            6.539739       16.953044       26.988627
  C            7.336124       15.993475       27.873387
  C            7.326633       14.660824       27.156344
  H            4.779483       16.614327       25.726499
  H            4.531784       16.285169       27.468796
  H            6.343792       17.902695       27.497810
  H            7.107657       17.169131       26.075350
  H            6.836044       15.902318       28.852167
  H            8.351977       16.348890       28.051779
  H            7.498178       13.813710       27.827961
  H            8.062944       14.645550       26.346583
  O           14.653294       35.919570       32.690596
  S           14.446645       34.739509       31.884773
  O           14.119130       33.455764       32.474205
  C           13.248706       35.119610       30.620863
  C           13.920606       34.727859       29.307478
  C           15.395637       35.101432       29.457567
  C           15.836708       34.530108       30.787697
  H           12.322847       34.565284       30.799770
  H           13.051045       36.193980       30.650181
  H           13.459989       35.238066       28.454823
  H           13.829144       33.646832       29.145256
  H           15.493116       36.200000       29.464366
  H           16.000366       34.719893       28.633655
  H           16.711830       35.040478       31.202165
  H           16.038419       33.457337       30.706601
  O           12.615086        1.890926        6.193594
  S           11.706774        2.827223        6.812397
  O           10.731385        3.573488        6.041419
  C           10.875911        2.005006        8.157991
  C           11.105509        2.901115        9.372147
  C           12.527464        3.445992        9.234481
  C           12.638333        3.967529        7.818180
  H            9.814677        1.878474        7.925026
  H           11.344442        1.028374        8.302449
  H           10.974396        2.347768       10.308158
  H           10.390316        3.732845        9.367194
  H           13.247594        2.626289        9.395418
  H           12.740649        4.223776        9.969126
  H           13.671659        4.013522        7.460100
  H           12.170627        4.952750        7.724962
  O           29.006253       29.168545       30.043600
  S           28.660049       30.565774       29.931833
  O           29.131283       31.551511       30.885229
  C           29.056574       31.117292       28.283927
  C           27.769391       31.745064       27.755758
  C           26.625809       30.884520       28.293796
  C           26.890422       30.718700       29.774567
  H           29.887900       31.827581       28.313709
  H           29.334478       30.243534       27.689355
  H           27.763707       31.785077       26.661287
  H           27.667822       32.770150       28.132830
  H           26.643181       29.902528       27.792009
  H           25.650559       31.335813       28.105852
  H           26.406182       29.833075       30.197983
  H           26.582355       31.609810       30.330550
  O            8.908357       24.409077       18.235439
  S            7.956771       25.460122       18.508181
  O            7.870960       26.650110       17.684006
  C            6.335180       24.733532       18.647856
  C            5.800142       25.214474       19.994083
  C            6.996224       25.225717       20.946480
  C            8.103825       25.953126       20.215525
  H            5.706901       25.049369       17.809994
  H            6.446641       23.646461       18.640616
  H            4.998388       24.564820       20.361018
  H            5.396294       26.229846       19.898031
  H            7.299781       24.187225       21.160463
  H            6.757736       25.704189       21.897421
  H            9.100787       25.696409       20.587363
  H            7.959461       27.037109       20.262862
  O           29.185546        3.842469       24.532796
  S           29.816280        4.232226       23.293900
  O           29.349115        3.747539       22.009557
  C           29.911652        6.011339       23.242303
  C           31.381712        6.321663       22.973005
  C           32.184957        5.281254       23.754125
  C           31.571264        3.940304       23.414369
  H           29.251105        6.402029       22.462855
  H           29.605905        6.397816       24.217677
  H           31.637689        7.341702       23.278778
  H           31.597105        6.224921       21.901769
  H           32.086115        5.482112       24.834072
  H           33.246913        5.313767       23.506552
  H           31.765313        3.177300       24.174809
  H           31.917792        3.586024       22.438406
  O            9.991287       10.985037        3.485959
  S           10.936325       10.972301        4.577445
  O           12.368146       11.019563        4.353050
  C           10.487505       12.255725        5.730000
  C           10.379324       11.554483        7.081465
  C            9.769869       10.180923        6.799157
  C           10.568406        9.598537        5.653136
  H           11.243409       13.046359        5.727262
  H            9.520450       12.664092        5.426290
  H            9.767196       12.130895        7.783283
  H           11.375945       11.431493        7.522963
  H            8.714861       10.305725        6.502874
  H            9.793442        9.534336        7.677489
  H           10.019258        8.832796        5.096201
  H           11.519607        9.187919        6.006278
  O            3.014677       29.026160       23.400223
  S            3.273570       30.445224       23.462119
  O            2.911239       31.339070       22.379319
  C            2.599615       31.077790       24.986141
  C            3.757950       31.810923       25.657464
  C            5.010373       30.984567       25.363571
  C            4.987930       30.709107       23.875681
  H            1.750842       31.735882       24.778781
  H            2.273520       30.229526       25.593028
  H            3.591029       31.921396       26.734234
  H            3.869079       32.813812       25.227157
  H            4.960859       30.037446       25.926520
  H            5.922230       31.502150       25.664778
  H            5.573103       29.827333       23.596131
  H            5.336958       31.578864       23.310171
  O           13.024626       15.922617       29.587530
  S           12.360702       15.037007       28.660437
  O           12.778700       14.921495       27.276734
  C           12.291843       13.409091       29.383035
  C           10.818985       13.012394       29.326283
  C           10.024880       14.287429       29.611737
  C           10.606094       15.351580       28.706213
  H           12.933130       12.721086       28.824555
  H           12.634797       13.480509       30.418159
  H           10.589099       12.223387       30.050244
  H           10.567829       12.638243       28.326167
  H           10.161484       14.571316       30.668689
  H            8.956174       14.150993       29.440416
  H           10.424514       16.367618       29.070624
  H           10.222875       15.250833       27.685874
  O           18.809465       12.163534        3.674528
  S           17.912218       11.057658        3.912407
  O           17.952754       10.287330        5.140271
  C           16.242027       11.613080        3.631398
  C           15.658201       10.621524        2.628471
  C           16.792621       10.277062        1.662947
  C           17.986714        9.936308        2.527949
  H           15.687164       11.631839        4.573882
  H           16.284017       12.617936        3.203963
  H           14.795801       11.045222        2.102880
  H           15.326639        9.713062        3.146221
  H           17.015656       11.156709        1.036148
  H           16.527995        9.454125        0.997479
  H           18.940854       10.060054        2.006024
  H           17.909321        8.917315        2.920075
  O           28.107435       27.492323       21.003819
  S           28.746002       28.776565       21.169816
  O           28.038162       29.921195       21.709710
  C           30.256395       28.543545       22.087102
  C           31.343067       29.189732       21.231832
  C           30.976878       28.884807       19.778998
  C           29.515537       29.249766       19.632417
  H           30.172043       29.003768       23.075828
  H           30.430903       27.469683       22.189897
  H           32.335583       28.803519       21.487276
  H           31.350967       30.275249       21.389597
  H           31.121287       27.808502       19.586348
  H           31.603070       29.434699       19.075008
  H           29.027184       28.730071       18.802037
  H           29.390730       30.330996       19.516374
  O           22.498213       24.757478       27.548907
  S           21.444950       25.460467       28.242481
  O           21.257405       26.891671       28.103988
  C           19.899415       24.638192       27.907542
  C           19.298730       24.349074       29.280673
  C           20.472647       23.979899       30.188103
  C           21.516090       25.055596       29.977623
  H           19.257002       25.277514       27.295110
  H           20.115851       23.708674       27.375233
  H           18.557957       23.543869       29.231682
  H           18.799932       25.245149       29.669966
  H           20.871989       22.997895       29.883808
  H           20.173660       23.906513       31.234678
  H           22.527148       24.725799       30.236650
  H           21.266566       25.960122       30.541246
  O           12.830107        6.084113       12.032489
  S           13.529957        6.279220       10.784794
  O           12.827645        6.398126        9.521734
  C           14.635146        7.665800       10.966326
  C           16.004259        7.139078       10.544434
  C           16.082207        5.700974       11.057835
  C           14.795442        5.033343       10.623433
  H           14.297742        8.500862       10.345577
  H           14.640747        7.962191       12.018144
  H           16.812734        7.756604       10.950057
  H           16.089530        7.144838        9.450818
  H           16.152440        5.711635       12.158450
  H           16.958676        5.176519       10.674626
  H           14.536635        4.165232       11.237845
  H           14.841685        4.739989        9.569912
  O           13.974336       17.197322       18.724509
  S           13.188946       16.592242       19.774100
  O           13.536037       16.739957       21.174246
  C           11.484097       17.060125       19.546998
  C           10.711374       15.743926       19.526520
  C           11.599283       14.742118       18.787737
  C           12.971100       14.859046       19.415945
  H           11.163503       17.721915       20.356785
  H           11.396832       17.576215       18.587709
  H            9.738632       15.858798       19.036543
  H           10.535413       15.394346       20.551279
  H           11.645184       15.015778       17.720308
  H           11.210596       13.724880       18.852923
  H           13.773657       14.516911       18.754927
  H           13.016134       14.314658       20.364477
  O           32.336066       27.062608        4.185775
  S           33.696717       27.139235        3.708955
  O           34.187105       26.281490        2.647591
  C           34.057627       28.835404        3.296943
  C           35.327076       29.170729        4.075375
  C           35.201817       28.454178        5.420241
  C           34.809815       27.028532        5.097644
  H           34.188312       28.941420        2.216118
  H           33.221578       29.453522        3.633325
  H           35.443607       30.252133        4.203772
  H           36.207785       28.796320        3.539212
  H           34.412435       28.939666        6.018218
  H           36.127848       28.498158        5.995247
  H           34.309034       26.524855        5.930487
  H           35.679727       26.444215        4.781532
  O            5.520353       18.165066        1.554784
  S            4.949747       19.451411        1.877779
  O            5.342110       20.661339        1.181484
  C            3.173480       19.309234        1.837041
  C            2.702795       19.834775        3.190614
  C            3.738679       19.364122        4.212001
  C            5.088970       19.728282        3.633814
  H            2.768119       19.884822        0.999855
  H            2.918340       18.253007        1.720904
  H            1.699960       19.468634        3.435081
  H            2.669536       20.931151        3.178243
  H            3.658927       18.270738        4.332630
  H            3.583095       19.818114        5.191688
  H            5.904283       19.120020        4.038020
  H            5.308392       20.789594        3.787345
  O           11.256228       25.169006        7.115200
  S           10.298493       24.840037        8.144337
  O           10.638689       24.889734        9.553058
  C            8.821267       25.799117        7.870531
  C            7.687430       24.777942        7.831613
  C            8.249046       23.547358        7.118837
  C            9.575734       23.250330        7.783572
  H            8.695588       26.534817        8.670187
  H            8.918321       26.307946        6.908308
  H            6.807626       25.176644        7.315395
  H            7.388278       24.508040        8.851889
  H            8.402384       23.783789        6.052541
  H            7.569397       22.695899        7.175363
  H           10.253582       22.675091        7.145040
  H            9.430153       22.727187        8.733955
  O           18.308328        7.912979       20.472103
  S           19.471371        8.338487       19.729894
  O           19.431497        8.548873       18.295723
  C           20.140081        9.794406       20.511001
  C           21.609479        9.468350       20.764884
  C           21.654737        7.991049       21.156463
  C           20.837386        7.258743       20.114415
  H           20.009976       10.664596       19.861123
  H           19.608922        9.950566       21.453171
  H           22.031140       10.106553       21.548720
  H           22.193708        9.624845       19.849741
  H           21.200238        7.865584       22.153504
  H           22.676520        7.612322       21.207698
  H           20.456007        6.296417       20.470194
  H           21.414050        7.111048       19.195859
  O            8.650917       18.298271       24.934085
  S            9.460403       18.082628       23.758147
  O            9.810189       19.164825       22.858592
  C           10.947689       17.228511       24.243395
  C           11.012938       16.001117       23.338327
  C            9.571219       15.520228       23.171013
  C            8.762978       16.746329       22.805466
  H           11.815155       17.884052       24.123950
  H           10.845395       16.933365       25.290593
  H           11.651090       15.221263       23.767384
  H           11.425365       16.276077       22.359756
  H            9.215034       15.100967       24.126917
  H            9.485436       14.739476       22.413935
  H            7.699396       16.642467       23.042334
  H            8.883260       16.994258       21.746144
  O           33.697003       23.479107        5.325189
  S           34.930797       23.439993        6.074069
  O           36.183933       23.906255        5.512865
  C           34.665548       24.240238        7.644499
  C           35.119403       23.223726        8.688826
  C           34.694695       21.853496        8.159778
  C           35.168416       21.796426        6.723626
  H           35.234062       25.173476        7.693071
  H           33.597616       24.449143        7.744890
  H           34.677245       23.432540        9.668823
  H           36.210671       23.255125        8.795823
  H           33.595511       21.773012        8.201199
  H           35.109575       21.038531        8.754595
  H           34.607970       21.077478        6.117726
  H           36.237886       21.569161        6.671821
  O            6.197374       20.429880        5.921112
  S            7.266706       19.966725        6.773531
  O            8.505734       20.705666        6.920069
  C            6.596787       19.631702        8.390926
  C            7.017826       18.198548        8.705087
  C            6.926241       17.430637        7.386101
  C            7.651904       18.275178        6.361229
  H            6.985771       20.351602        9.116829
  H            5.508529       19.712478        8.332881
  H            6.379324       17.753951        9.475897
  H            8.052044       18.181165        9.070315
  H            5.865899       17.318169        7.104276
  H            7.356626       16.431208        7.463627
  H            7.335071       18.066107        5.334581
  H            8.735993       18.150172        6.446224
  O           18.937756       16.693850       22.355086
  S           17.729987       16.986014       21.619876
  O           17.065483       18.271294       21.715740
  C           18.006762       16.603279       19.901182
  C           16.868808       15.661363       19.516790
  C           16.629349       14.766660       20.733329
  C           16.535152       15.697490       21.922818
  H           18.010331       17.521141       19.306190
  H           18.972900       16.099934       19.815041
  H           17.119141       15.073900       18.627004
  H           15.960828       16.236860       19.298445
  H           17.484737       14.080944       20.853768
  H           15.729993       14.158990       20.623803
  H           16.762463       15.201552       22.871752
  H           15.547204       16.165515       21.977704
  O           20.660348       24.510696        4.978112
  S           19.632397       23.684055        4.391100
  O           18.658825       22.978950        5.202077
  C           18.774240       24.639795        3.155331
  C           18.835281       23.793177        1.886704
  C           20.212741       23.129548        1.885382
  C           20.386131       22.527127        3.262780
  H           17.748051       24.838611        3.477679
  H           19.310923       25.581944        3.019215
  H           18.680756       24.403656        0.990637
  H           18.055150       23.022371        1.910240
  H           20.984975       23.896179        1.705577
  H           20.303663       22.376838        1.100996
  H           21.436037       22.379671        3.534906
  H           19.845673       21.579054        3.347412
  O           31.958455       18.820615       22.258213
  S           33.352658       18.838465       22.633017
  O           33.776149       18.750188       24.017055
  C           34.209998       17.596852       21.684141
  C           35.369813       18.335426       21.021391
  C           34.832502       19.715759       20.642209
  C           34.142514       20.248351       21.879327
  H           34.547382       16.788062       22.338764
  H           33.519947       17.204637       20.933011
  H           35.741423       17.792676       20.145703
  H           36.200344       18.445300       21.729519
  H           34.107166       19.609284       19.818224
  H           35.624829       20.384178       20.302307
  H           33.392133       21.012635       21.653717
  H           34.870092       20.644490       22.594731
  O           23.094116       33.114062        2.238320
  S           21.888583       33.021865        3.027490
  O           21.764139       32.090717        4.132106
  C           21.457001       34.655485        3.594958
  C           20.008732       34.857256        3.157114
  C           19.882382       34.188661        1.787875
  C           20.491991       32.811788        1.938868
  H           21.580253       34.722763        4.679755
  H           22.115543       35.373590        3.100138
  H           19.748769       35.920237        3.112522
  H           19.329032       34.371744        3.868159
  H           20.447114       34.775157        1.043898
  H           18.845813       34.136773        1.451822
  H           20.828378       32.387444        0.987618
  H           19.792254       32.123736        2.423692
  O           12.877409       25.185590       10.396852
  S           13.085664       26.212125       11.390560
  O           11.990230       26.766121       12.162451
  C           14.364627       25.668568       12.506713
  C           15.390337       26.798947       12.514580
  C           15.447438       27.330009       11.081921
  C           14.010422       27.551583       10.662292
  H           13.943838       25.477401       13.498122
  H           14.801348       24.751191       12.104352
  H           16.370510       26.447258       12.853810
  H           15.064535       27.598641       13.191073
  H           15.920918       26.574202       10.433096
  H           16.035553       28.245849       11.008037
  H           13.876852       27.542073        9.575936
  H           13.621095       28.487901       11.074401
  O           14.018842        3.715379       26.691983
  S           13.346112        4.811105       26.035160
  O           12.148337        4.611455       25.242584
  C           13.038618        6.089659       27.238383
  C           13.638344        7.356015       26.632932
  C           14.915862        6.919283       25.915289
  C           14.529983        5.727388       25.066359
  H           11.964697        6.181970       27.424592
  H           13.554950        5.819474       28.162829
  H           13.844614        8.108080       27.401925
  H           12.940643        7.794363       25.908802
  H           15.670307        6.624739       26.663926
  H           15.342212        7.722898       25.313185
  H           15.381188        5.084054       24.822079
  H           14.031414        6.046266       24.145573
  O           10.038080        7.323910        8.539334
  S            9.349732        7.127559        9.793217
  O            8.531859        5.956756       10.044222
  C           10.526763        7.307652       11.119552
  C            9.917567        8.352474       12.050748
  C            9.236868        9.380891       11.146974
  C            8.396258        8.586220       10.171232
  H           10.686036        6.345891       11.615684
  H           11.467021        7.667709       10.694729
  H           10.680335        8.815604       12.685725
  H            9.170813        7.885014       12.704308
  H           10.007397        9.954944       10.605542
  H            8.633560       10.089878       11.715706
  H            8.181578        9.134057        9.248254
  H            7.459380        8.260991       10.634467
  O           28.172714       23.369416       15.012617
  S           27.733971       22.192672       14.300312
  O           26.935879       22.279938       13.092780
  C           29.152261       21.160352       13.984453
  C           28.776308       19.789543       14.540728
  C           27.973221       20.054310       15.814600
  C           26.929077       21.084467       15.442121
  H           29.367641       21.133034       12.912368
  H           30.005273       21.577810       14.525099
  H           29.665173       19.182519       14.743069
  H           28.153253       19.247803       13.818495
  H           28.645472       20.457468       16.590450
  H           27.519680       19.143961       16.209144
  H           26.560510       21.649388       16.304166
  H           26.088183       20.619290       14.918091
  O            8.353124        4.652945       25.257280
  S            8.728077        5.169947       26.552162
  O            9.882811        6.028766       26.730262
  C            7.304002        5.954430       27.282640
  C            7.152235        5.301993       28.654206
  C            7.519190        3.829601       28.466573
  C            8.831448        3.820203       27.712855
  H            7.460459        7.035087       27.347460
  H            6.436524        5.740873       26.653295
  H            6.134476        5.417859       29.041815
  H            7.842267        5.765165       29.370186
  H            6.734931        3.332966       27.871014
  H            7.596453        3.302517       29.418577
  H            9.006767        2.884253       27.173077
  H            9.671510        4.022311       28.384828
  O           16.913049       36.206325        6.820633
  S           17.635842       35.259045        6.005260
  O           17.389698       35.126742        4.582373
  C           19.381828       35.498939        6.271689
  C           19.917493       34.121254        6.652408
  C           18.836205       33.469003        7.514491
  C           17.537557       33.645438        6.757798
  H           19.850542       35.895481        5.366393
  H           19.507271       36.205353        7.095972
  H           20.869743       34.196432        7.188194
  H           20.082705       33.518860        5.750673
  H           18.783940       33.988477        8.485992
  H           19.049052       32.417387        7.711724
  H           16.656337       33.595142        7.405116
  H           17.448324       32.907874        5.953972
  O           22.671886       15.592638       35.040452
  S           22.213723       16.436463       33.962191
  O           23.118524       16.948827       32.951489
  C           20.841476       15.632234       33.157732
  C           19.718337       16.665886       33.162371
  C           19.825919       17.403306       34.497450
  C           21.280381       17.796187       34.640219
  H           21.124292       15.325004       32.146730
  H           20.564895       14.756132       33.749465
  H           18.738338       16.192214       33.040974
  H           19.856126       17.375682       32.337444
  H           19.534320       16.721170       35.313575
  H           19.166981       18.271708       34.539629
  H           21.577198       17.962821       35.680523
  H           21.506982       18.685819       34.044142
  O           15.734997       31.598515        4.413550
  S           14.582850       31.955466        3.619987
  O           13.438838       31.074147        3.488784
  C           14.018017       33.565894        4.134268
  C           13.957632       34.392553        2.852516
  C           15.155433       33.955253        2.008807
  C           15.122721       32.442363        1.991745
  H           13.044803       33.484677        4.626975
  H           14.753483       33.979735        4.828548
  H           13.985914       35.466133        3.067282
  H           13.028017       34.179820        2.310427
  H           16.084419       34.310253        2.485629
  H           15.119931       34.371382        1.000999
  H           16.099903       31.996820        1.780302
  H           14.384912       32.073806        1.272091
  O           14.840859       19.717468        0.997913
  S           15.694568       18.700656        1.565252
  O           15.771112       17.364377        1.007400
  C           17.342911       19.362709        1.712394
  C           17.729276       19.142901        3.172635
  C           16.458795       19.383721        3.988530
  C           15.371436       18.575374        3.314421
  H           18.017604       18.852510        1.018862
  H           17.304400       20.429284        1.477584
  H           18.538214       19.815171        3.477876
  H           18.071952       18.111398        3.320535
  H           16.207381       20.457227        3.960660
  H           16.583919       19.099422        5.034292
  H           14.365705       18.949801        3.529852
  H           15.439472       17.518472        3.590880
  O           30.546765       28.027921        7.057451
  S           30.520610       27.449148        8.379926
  O           30.566315       28.267175        9.576355
  C           29.126704       26.343414        8.486600
  C           29.709985       25.015289        8.961749
  C           31.068206       24.877837        8.273169
  C           31.782019       26.193914        8.493649
  H           28.379352       26.744181        9.177506
  H           28.694328       26.242193        7.488098
  H           29.047687       24.177668        8.718331
  H           29.848724       25.032448       10.049755
  H           30.912900       24.705341        7.194965
  H           31.642140       24.036602        8.664351
  H           32.560543       26.387055        7.748869
  H           32.211820       26.243702        9.499081
  O            3.783674        9.737353        7.776515
  S            4.282768       10.655061        8.773168
  O            3.690189       10.750700       10.093169
  C            6.039501       10.405992        8.943034
  C            6.656395       11.788436        8.747612
  C            5.825544       12.474268        7.662660
  C            4.378904       12.289519        8.066767
  H            6.266938        9.980391        9.924684
  H            6.364683        9.721244        8.155902
  H            7.711927       11.718917        8.463850
  H            6.593159       12.364330        9.679088
  H            6.015744       11.982096        6.694161
  H            6.083313       13.528820        7.555078
  H            3.686874       12.365873        7.222158
  H            4.093962       13.005621        8.844010
  O           26.700099       22.197372        4.292129
  S           26.514103       20.766249        4.248607
  O           27.019107       19.894950        5.291922
  C           24.782088       20.427725        3.998557
  C           24.730004       19.505924        2.783045
  C           25.819016       19.998921        1.829731
  C           27.068919       20.152504        2.668988
  H           24.354977       19.965984        4.893471
  H           24.276208       21.373672        3.790063
  H           23.742194       19.522765        2.310343
  H           24.944029       18.473022        3.084056
  H           25.520219       20.974257        1.410398
  H           25.974239       19.312901        0.995835
  H           27.790363       20.852491        2.235817
  H           27.549593       19.183777        2.838166
  O           10.961160       27.946014        8.852322
  S           10.384628       29.038898        8.105452
  O           10.369194       29.053359        6.655538
  C            8.730818       29.324660        8.705664
  C            8.688765       30.808825        9.059762
  C           10.058497       31.142809        9.651446
  C           11.078051       30.574973        8.687978
  H            7.999296       29.055909        7.938104
  H            8.579797       28.708996        9.595805
  H            7.880175       31.029027        9.764882
  H            8.522281       31.407304        8.155657
  H           10.155987       30.658457       10.637498
  H           10.191906       32.216051        9.794462
  H           12.048782       30.385309        9.156816
  H           11.207850       31.231539        7.821852
  O           24.914232       25.252558        6.584720
  S           23.678347       24.882380        5.936523
  O           22.455619       24.662836        6.684477
  C           23.355275       26.046839        4.626309
  C           23.147488       25.192073        3.378872
  C           24.138109       24.032633        3.489188
  C           23.969535       23.472158        4.884771
  H           22.478545       26.654186        4.869154
  H           24.233276       26.687958        4.515487
  H           23.307109       25.773436        2.464521
  H           22.123083       24.800398        3.356866
  H           25.163175       24.416811        3.354851
  H           23.965840       23.273029        2.725365
  H           24.852273       22.928333        5.235668
  H           23.088848       22.824876        4.944068
  O           26.900031       13.266085        5.482856
  S           27.576468       12.531140        4.440316
  O           27.686100       13.043161        3.088090
  C           29.200134       12.084547        5.024494
  C           29.292018       10.574244        4.823393
  C           27.905006       10.018009        5.146811
  C           26.923105       10.873238        4.375674
  H           29.965583       12.629387        4.464371
  H           29.263028       12.339226        6.085335
  H           30.063261       10.131794        5.462864
  H           29.545643       10.347757        3.780475
  H           27.720460       10.110016        6.230268
  H           27.815463        8.963135        4.883516
  H           25.916016       10.858396        4.804220
  H           26.881822       10.572224        3.324110
  O           21.270031        7.146469       31.091417
  S           21.040162        7.484389       32.476180
  O           20.293979        8.665745       32.863880
  C           20.344463        6.063795       33.297713
  C           21.247488        5.822282       34.504410
  C           22.670157        6.133706       34.038764
  C           22.596892        7.477072       33.345799
  H           19.307611        6.263475       33.583310
  H           20.384219        5.217272       32.607773
  H           21.158951        4.793966       34.870781
  H           20.971533        6.498520       35.322854
  H           22.997945        5.356542       33.328150
  H           23.378940        6.145129       34.867979
  H           23.414819        7.636211       32.636032
  H           22.575401        8.293813       34.074203
  O           23.143035       30.459795       26.339797
  S           23.013724       29.490366       25.277682
  O           24.121984       28.650485       24.866516
  C           21.601152       28.459063       25.621276
  C           20.743343       28.529246       24.360665
  C           20.854742       29.966533       23.851161
  C           22.333087       30.289764       23.836365
  H           21.925223       27.440038       25.851634
  H           21.069234       28.882951       26.476602
  H           19.703755       28.254348       24.568481
  H           21.131318       27.838454       23.601994
  H           20.325080       30.640041       24.545600
  H           20.405083       30.087047       22.864559
  H           22.535337       31.364501       23.882561
  H           22.820147       29.859501       22.955600
  O           28.731822       25.956446       17.470341
  S           28.741189       25.158641       18.673678
  O           28.972318       25.743685       19.980200
  C           27.241963       24.196076       18.726534
  C           27.703785       22.753447       18.914791
  C           28.980268       22.605065       18.086315
  C           29.855212       23.783618       18.454673
  H           26.600887       24.540959       19.542976
  H           26.725342       24.316517       17.771130
  H           26.933003       22.042313       18.599064
  H           27.926820       22.564162       19.972017
  H           28.723753       22.642165       17.014296
  H           29.482248       21.654967       18.274546
  H           30.591169       24.026699       17.681771
  H           30.363914       23.611846       19.408517
  O           21.503012        9.323407       17.782982
  S           22.327625        9.385624       16.599452
  O           22.337855       10.547429       15.731809
  C           24.004142        8.988232       17.055929
  C           24.413954        7.858728       16.114561
  C           23.172774        6.983862       15.936006
  C           22.038963        7.931298       15.608841
  H           24.642072        9.870959       16.954255
  H           24.003309        8.646999       18.094081
  H           25.255907        7.286750       16.518859
  H           24.718094        8.269018       15.143756
  H           22.964176        6.452581       16.879737
  H           23.309747        6.233384       15.156184
  H           21.054181        7.515774       15.844731
  H           22.070611        8.232953       14.557127
  O           15.313708       12.913283       32.321924
  S           16.384851       13.537457       31.581884
  O           17.153822       14.639161       32.127439
  C           17.505306       12.266971       31.027406
  C           17.630897       12.479290       29.521070
  C           16.242681       12.895874       29.034128
  C           15.787862       13.998126       29.965997
  H           18.464630       12.357941       31.545018
  H           17.054857       11.295643       31.246080
  H           17.979691       11.571714       29.016939
  H           18.350265       13.280658       29.312214
  H           15.559390       12.032928       29.103677
  H           16.255594       13.225746       27.994360
  H           14.699444       14.110431       29.994841
  H           16.251101       14.953395       29.699590
  O           36.200251       33.482049       17.964063
  S           35.562977       33.627854       19.251395
  O           36.200248       33.187275       20.477151
  C           35.051960       35.324856       19.441254
  C           33.566966       35.255098       19.787415
  C           32.991975       34.105182       18.959840
  C           33.923163       32.931635       19.174028
  H           35.642286       35.811311       20.223159
  H           35.204392       35.835814       18.487374
  H           33.060609       36.201477       19.569542
  H           33.438750       35.040250       20.855451
  H           32.982006       34.393463       17.895324
  H           31.967478       33.865709       19.248214
  H           33.874555       32.195305       18.365599
  H           33.723579       32.442034       20.132441
  O            3.634057       19.035105       21.196667
  S            3.377542       18.116888       22.280954
  O            3.536227       18.505367       23.668975
  C            1.754147       17.415815       22.057154
  C            1.965508       15.904782       22.101940
  C            3.294805       15.641156       21.393935
  C            4.287946       16.609887       21.998445
  H            1.079522       17.768219       22.842769
  H            1.380351       17.726435       21.078384
  H            1.139228       15.370906       21.620548
  H            2.028589       15.563851       23.142655
  H            3.177541       15.840169       20.315490
  H            3.620373       14.606078       21.506717
  H            5.139727       16.813006       21.341702
  H            4.646364       16.250456       22.968211
  O            5.916063       27.147016       13.839811
  S            7.185164       26.568510       14.213058
  O            7.323173       25.701102       15.366859
  C            7.876092       25.751413       12.787586
  C            9.277068       26.337848       12.635074
  C            9.160196       27.817170       13.003513
  C            8.408992       27.861276       14.316505
  H            7.889452       24.668749       12.943025
  H            7.256848       25.995543       11.920904
  H            9.657775       26.204578       11.616840
  H            9.970783       25.840422       13.324006
  H            8.588274       28.342367       12.220268
  H           10.136321       28.298188       13.080325
  H            7.914619       28.821737       14.493172
  H            9.071337       27.626576       15.155740
  O           18.553246       16.360849       26.281071
  S           19.209645       17.539964       25.767818
  O           19.450376       17.728285       24.350326
  C           18.374530       18.977724       26.410025
  C           19.472943       19.818858       27.054914
  C           20.439855       18.828275       27.704242
  C           20.740506       17.786726       26.648314
  H           17.860403       19.507295       25.602728
  H           17.650314       18.645880       27.158082
  H           19.061049       20.520232       27.788342
  H           20.000722       20.400496       26.289117
  H           19.949222       18.358429       28.573106
  H           21.348202       19.316467       28.060156
  H           21.078326       16.835407       27.071364
  H           21.480957       18.156406       25.931956
  O           18.838953       31.917320       34.040655
  S           18.155438       33.139120       33.687650
  O           17.049490       33.156023       32.749944
  C           17.656249       33.962346       35.187686
  C           18.221122       35.375561       35.070877
  C           19.584173       35.232953       34.392973
  C           19.356834       34.355561       33.181073
  H           16.566213       33.952742       35.278398
  H           18.104863       33.433809       36.032431
  H           18.306726       35.854442       36.052123
  H           17.563051       35.994077       34.448238
  H           20.286762       34.745172       35.089276
  H           20.007599       36.199950       34.117788
  H           20.267828       33.852756       32.841402
  H           18.922268       34.929773       32.356735
  O           28.729337       12.759940       32.566995
  S           29.560323       13.811887       32.030832
  O           29.040647       14.808145       31.114258
  C           30.372341       14.638020       33.385502
  C           31.858355       14.600935       33.038676
  C           32.106050       13.244602       32.377761
  C           31.030717       13.092255       31.323887
  H           29.991146       15.658142       33.488170
  H           30.172899       14.072296       34.298945
  H           32.480552       14.735009       33.929965
  H           32.100565       15.404512       32.332349
  H           32.011488       12.448778       33.135468
  H           33.106073       13.175589       31.947307
  H           30.837682       12.047868       31.059137
  H           31.280395       13.661846       30.423151
  O           10.426569       28.070345        0.999210
  S           11.652276       28.523306        1.613270
  O           12.375752       29.679240        1.120221
  C           11.370828       28.718359        3.362482
  C           12.466097       27.894390        4.034316
  C           12.653991       26.650091        3.165860
  C           12.782856       27.150522        1.743481
  H           11.414939       29.776557        3.635925
  H           10.382764       28.314251        3.596207
  H           12.195155       27.631603        5.062437
  H           13.401768       28.466065        4.066065
  H           11.766411       26.002557        3.262301
  H           13.524574       26.066873        3.469244
  H           12.525292       26.390713        0.998867
  H           13.791280       27.530050        1.550760
  O           23.865747       30.920002       11.589022
  S           23.726757       31.842837       10.487361
  O           23.930085       31.431546        9.111789
  C           22.144297       32.651860       10.622649
  C           22.457769       34.145107       10.579669
  C           23.763672       34.326932       11.353852
  C           24.719780       33.288927       10.807407
  H           21.488819       32.337409        9.805355
  H           21.701040       32.375957       11.582649
  H           21.645294       34.737021       11.014435
  H           22.596596       34.471218        9.541556
  H           23.578366       34.146364       12.425979
  H           24.162752       35.337088       11.251768
  H           25.521414       33.036152       11.508540
  H           25.150499       33.614633        9.855306
  O            4.631479        6.052170        3.276572
  S            5.247428        5.124256        4.195365
  O            5.409053        5.431876        5.603182
  C            4.434255        3.546124        4.036462
  C            5.557692        2.545872        3.777069
  C            6.568109        3.265163        2.882934
  C            6.821288        4.606652        3.536010
  H            3.871906        3.318237        4.946590
  H            3.754983        3.596850        3.181936
  H            5.179297        1.632975        3.304908
  H            6.037402        2.264505        4.722590
  H            6.129977        3.406678        1.880730
  H            7.489571        2.693370        2.764356
  H            7.190911        5.360245        2.833461
  H            7.518117        4.509710        4.374540
  O            2.509767       22.750767       30.744228
  S            3.291323       23.311973       29.667744
  O            3.106043       22.900345       28.289725
  C            3.189238       25.089034       29.760650
  C            4.638195       25.568705       29.779076
  C            5.412307       24.548334       30.614178
  C            5.022636       23.188495       30.076409
  H            2.629099       25.479847       28.906244
  H            2.681183       25.353385       30.691348
  H            4.720215       26.577632       30.197214
  H            5.040703       25.590973       28.758884
  H            5.110486       24.640173       31.670998
  H            6.489949       24.709712       30.561789
  H            5.172002       22.383542       30.802936
  H            5.567020       22.960203       29.154657
  O            3.154821       17.760009       28.345314
  S            2.985296       17.740832       29.779013
  O            2.817798       16.502818       30.515196
  C            4.307357       18.680455       30.518109
  C            3.613714       19.703635       31.413577
  C            2.352053       20.135753       30.665723
  C            1.669784       18.858157       30.227025
  H            4.974253       18.017805       31.077256
  H            4.861364       19.177510       29.717976
  H            4.267396       20.555832       31.627958
  H            3.335554       19.241277       32.368644
  H            2.639031       20.735253       29.785585
  H            1.698393       20.750023       31.286612
  H            1.003175       19.002693       29.370963
  H            1.115335       18.405038       31.054896
  O           29.496529        1.794435       30.445255
  S           30.203144        2.979351       30.019500
  O           29.874233        3.667016       28.785955
  C           30.194848        4.155448       31.358801
  C           31.660744        4.523899       31.571620
  C           32.457801        3.237907       31.350881
  C           31.956507        2.655833       30.047004
  H           29.578835        5.020657       31.097187
  H           29.786481        3.661599       32.243984
  H           31.828408        4.935638       32.572549
  H           31.969686        5.279099       30.838457
  H           32.257784        2.539734       32.180910
  H           33.532722        3.422104       31.324138
  H           32.132544        1.578621       29.964996
  H           32.403544        3.169718       29.190162
  N            9.738149       29.380466       29.073351
  C           10.190401       29.490088       28.009560
  N           10.794369       29.556507       26.685547
  S            9.939216       30.449742       25.681284
  O            9.595493       31.789623       26.156124
  O           10.468228       30.443213       24.312999
  C            8.356735       29.500147       25.588431
  F            7.591310       29.878398       24.526380
  F            7.572489       29.654362       26.689238
  F            8.571089       28.155077       25.438300
  N           24.409426       20.605698       10.297985
  C           24.810153       19.731866        9.646806
  N           25.372294       18.625697        8.883531
  S           24.271131       17.885911        8.001569
  O           23.463524       18.746837        7.138159
  O           24.790073       16.701638        7.308534
  C           23.134218       17.223007        9.298714
  F           22.301822       16.260944        8.810398
  F           22.328575       18.174077        9.843697
  F           23.817507       16.640152       10.333651
  N           30.223460       12.513170       12.081354
  C           29.420622       12.228275       11.292376
  N           28.398172       11.949474       10.292843
  S           28.652187       10.565410        9.546156
  O           28.854530        9.403459       10.410926
  O           27.698196       10.314360        8.460349
  C           30.265503       10.883918        8.703326
  F           30.523478        9.971723        7.724424
  F           31.330893       10.838412        9.548001
  F           30.294447       12.110264        8.092641
  N           28.344712       25.650159        2.239010
  C           29.282831       25.523153        2.911321
  N           30.413068       25.326929        3.809242
  S           31.798695       25.273387        3.025105
  O           32.056435       26.386004        2.111566
  O           32.939979       24.967737        3.894672
  C           31.578462       23.768452        1.975692
  F           32.760155       23.317249        1.468821
  F           30.765804       23.974936        0.904454
  F           31.047032       22.721238        2.681826
  N            5.956668       22.885977        9.250175
  C            4.936237       22.336510        9.320936
  N            3.658699       21.657092        9.489722
  S            2.745834       21.766214        8.188773
  O            3.377911       21.365459        6.932280
  O            1.411744       21.184223        8.372052
  C            2.463290       23.589109        8.080038
  F            1.429250       23.900802        7.249070
  F            3.541247       24.272521        7.609340
  F            2.146764       24.134853        9.296457
  N            9.315901       34.959688        4.567740
  C            9.952978       34.135441        5.080525
  N           10.730217       33.131803        5.795234
  S           10.913870       31.798174        4.943527
  O           11.429389       31.975592        3.586449
  O           11.599117       30.733013        5.683778
  C            9.167821       31.217630        4.773588
  F            9.094726       29.915130        4.379824
  F            8.452879       31.926309        3.858584
  F            8.482523       31.292231        5.957861
  N            7.281592        4.250747       23.378736
  C            6.154978        3.973158       23.335324
  N            4.754815        3.591452       23.208661
  S            4.054350        3.404393       24.627132
  O            4.199274        4.520787       25.560705
  O            2.675243        2.914319       24.527173
  C            5.014441        1.994133       25.337056
  F            4.381408        1.424582       26.400909
  F            6.247542        2.354965       25.784116
  F            5.200662        0.987383       24.426300
  N           18.554588       15.493927       15.853252
  C           19.709104       15.410357       15.944403
  N           21.148213       15.293292       16.137950
  S           21.891967       14.801040       14.818019
  O           21.597845       15.558131       13.601793
  O           23.326830       14.570691       15.018541
  C           21.164334       13.118938       14.582051
  F           21.892522       12.360340       13.715350
  F           19.898782       13.146299       14.083822
  F           21.115099       12.409927       15.753622
  N           25.187931        8.528548       21.571716
  C           26.276928        8.127005       21.539356
  N           27.640590        7.616074       21.579066
  S           28.052850        6.902752       20.215646
  O           27.832180        7.681755       18.997714
  O           29.382119        6.284475       20.269287
  C           26.866970        5.486740       20.159083
  F           27.246455        4.533352       19.262455
  F           25.606848        5.855445       19.803064
  F           26.768019        4.849013       21.367890
  N           25.156983       35.490489       22.261449
  C           24.583760       35.308685       21.268190
  N           23.929309       35.041086       19.994501
  S           22.342271       35.016341       20.130140
  O           21.740936       36.179565       20.781450
  O           21.664535       34.641134       18.884349
  C           22.084803       33.582559       21.267057
  F           20.793716       33.146715       21.261235
  F           22.378478       33.866576       22.564627
  F           22.849033       32.501365       20.913968
  N            1.935295        4.926575       25.020604
  C            2.646133        5.123329       24.123834
  N            3.474784        5.360781       22.949460
  S            4.748330        6.256522       23.286253
  O            5.567818        5.801241       24.408777
  O            5.539399        6.600455       22.099653
  C            3.962361        7.843009       23.815319
  F            4.848554        8.878128       23.824802
  F            3.435300        7.789582       25.068296
  F            2.949462        8.221907       22.973790
  N           23.831739       26.255364       13.418692
  C           24.792233       26.814866       13.754267
  N           25.972110       27.580775       14.133043
  S           26.587009       27.088010       15.517522
  O           26.851427       25.653399       15.621810
  O           27.710108       27.913945       15.974228
  C           25.210074       27.458143       16.692958
  F           25.623975       27.443666       17.991178
  F           24.184772       26.567336       16.616682
  F           24.673190       28.701194       16.482526
  N           25.614002       29.253130        4.582107
  C           26.652482       28.916772        4.977862
  N           27.932203       28.517698        5.548172
  S           28.635744       27.370065        4.696309
  O           28.772096       27.633235        3.264161
  O           29.872896       26.874981        5.309861
  C           27.427433       25.982294        4.865653
  F           27.968515       24.782889        4.511312
  F           26.319823       26.137061        4.091156
  F           26.992257       25.832703        6.156368
  N           19.043776       27.752153        3.282187
  C           19.823225       28.609708        3.354707
  N           20.806865       29.670714        3.524766
  S           21.621267       29.952763        2.185029
  O           20.815076       30.187755        0.987642
  O           22.691630       30.940592        2.360005
  C           22.491337       28.342877        1.928426
  F           23.516603       28.448527        1.037041
  F           21.678011       27.363202        1.449533
  F           23.047016       27.867161        3.087139
  N            6.879664        9.312602       16.150939
  C            7.086412        8.172512       16.226101
  N            7.352898        6.740384       16.240064
  S            7.990640        6.263270       17.619683
  O            7.267740        6.662334       18.826771
  O            8.368739        4.845829       17.618588
  C            9.591123        7.186784       17.632894
  F           10.468667        6.682355       18.545235
  F            9.448312        8.504488       17.939262
  F           10.230367        7.127116       16.422313
  N           26.154201       21.650241       11.135318
  C           26.002136       22.513232       10.373529
  N           25.784340       23.541447        9.364797
  S           25.526196       24.972816       10.014600
  O           26.518845       25.416055       10.992909
  O           25.196248       26.003031        9.023697
  C           23.957383       24.684381       10.947462
  F           23.350470       25.850432       11.306462
  F           24.138943       23.986026       12.100691
  F           23.036140       23.993187       10.204992
  N            5.174191       27.436786       22.374056
  C            4.759123       27.764156       21.340254
  N            4.306546       28.147706       20.009741
  S            2.717385       28.174634       19.902298
  O            2.023453       28.956183       20.925303
  O            2.237575       28.451502       18.543907
  C            2.290052       26.403464       20.210427
  F            1.015069       26.108261       19.830726
  F            2.382423       26.048780       21.520490
  F            3.099494       25.548666       19.509124
  N           34.788365       16.162627        8.832093
  C           33.636740       16.120153        8.974069
  N           32.203413       16.078949        9.231116
  S           31.353271       16.506016        7.953394
  O           31.672294       15.801480        6.712123
  O           29.912351       16.577790        8.219288
  C           31.885539       18.259721        7.717151
  F           31.042529       18.947121        6.896349
  F           33.123323       18.375522        7.164810
  F           31.910717       18.954036        8.898248
  N           14.242972       20.010532       34.073903
  C           14.910683       19.468143       33.294046
  N           15.812278       18.804413       32.361958
  S           15.072631       17.677697       31.512762
  O           13.847386       18.095198       30.832051
  O           15.982428       16.921133       30.645593
  C           14.564836       16.486485       32.831003
  F           14.217636       15.271622       32.320652
  F           13.492541       16.909747       33.553244
  F           15.575507       16.244989       33.724269
  N           35.158026        8.700432       24.311753
  C           35.616169        9.264754       23.406300
  N           36.200070        9.901606       22.233407
  S           35.712387       11.408767       22.065088
  O           35.866076       12.262701       23.242405
  O           36.200233       12.036640       20.832253
  C           33.896104       11.189031       21.805415
  F           33.310133       12.308616       21.295447
  F           33.220779       10.901293       22.950729
  F           33.620681       10.182028       20.917841
  N            3.037689       13.572981       31.547961
  C            3.043911       14.015346       32.621495
  N            3.072344       14.497382       33.995915
  S            3.375491       16.059201       34.076696
  O            2.526108       16.916000       33.250051
  O            3.517345       16.546915       35.452964
  C            5.075480       16.149485       33.358026
  F            5.688778       17.334466       33.634766
  F            5.093143       16.025894       32.003399
  F            5.898234       15.173877       33.856989
  N           19.198242       22.015708       35.036065
  C           18.067623       21.950737       35.292342
  N           16.669540       21.858650       35.691197
  S           15.707858       22.636637       34.687402
  O           15.860566       22.302239       33.271860
  O           14.308251       22.650664       35.126724
  C           16.290041       24.379311       34.884258
  F           15.395919       25.279673       34.387473
  F           17.465714       24.628042       34.246664
  F           16.472334       24.716075       36.199955
  N           18.969879       14.181887       35.151673
  C           19.599825       13.320016       35.608341
  N           20.321226       12.201906       36.201309
  S           21.765487       12.011528       35.556665
  O           22.609205       13.205598       35.521490
  O           22.468088       10.826178       36.060049
  C           21.344040       11.610704       33.802720
  F           22.398485       11.068297       33.131272
  F           20.959438       12.697748       33.080905
  F           20.328917       10.694618       33.713213
  N           18.581886       34.060754       24.130740
  C           18.531850       33.016426       24.635789
  N           18.496509       31.674102       25.200694
  S           18.642452       31.687829       26.786951
  O           17.721949       32.570205       27.503183
  O           18.719382       30.343392       27.368905
  C           20.333311       32.401400       27.002386
  F           20.822935       32.194684       28.257152
  F           20.378771       33.745751       26.799274
  F           21.242873       31.838924       26.145639
  N           20.523861       27.121354       13.969190
  C           19.904831       27.924623       14.534666
  N           19.192544       28.980957       15.241070
  S           17.616388       28.884646       15.030937
  O           17.014914       27.582048       15.314426
  O           16.885632       30.000198       15.642198
  C           17.463383       29.151806       13.208901
  F           16.187756       29.456402       12.838905
  F           17.816323       28.062228       12.474836
  F           18.240681       30.193057       12.773811
  N           15.584717        6.481329       34.198106
  C           15.295757        7.326720       34.939738
  N           14.983915        8.354658       35.923759
  S           14.498666        9.709728       35.241102
  O           13.410872        9.580284       34.272160
  O           14.283292       10.794226       36.205248
  C           16.000171       10.207849       34.286136
  F           15.950865       11.511713       33.893190
  F           16.179990        9.480862       33.150463
  F           17.146782       10.080289       35.025536
  N            5.314070        5.195028       14.606615
  C            5.199881        6.301644       14.939123
  N            5.101144        7.672757       15.421306
  S            4.866946        8.709524       14.234728
  O            3.758998        8.402605       13.330764
  O            4.873220       10.106578       14.682276
  C            6.419849        8.513335       13.252586
  F            6.608858        9.541195       12.378127
  F            6.442750        7.376775       12.505387
  F            7.533934        8.487378       14.049984
  N           12.062492       10.136126       11.369362
  C           12.746215       10.477365       12.243593
  N           13.661150       10.856080       13.312082
  S           13.355255       12.315199       13.873420
  O           11.970422       12.566946       14.270610
  O           14.330340       12.762355       14.874101
  C           13.677538       13.364642       12.387014
  F           13.817112       14.681709       12.707565
  F           12.680815       13.307564       11.462956
  F           14.834942       13.008229       11.745855
  N           18.836572       20.603068       23.298383
  C           19.995826       20.569147       23.354783
  N           21.443782       20.513564       23.504891
  S           22.168367       20.060917       22.160352
  O           21.805663       20.810889       20.958317
  O           23.617182       19.891937       22.316819
  C           21.507315       18.350110       21.935074
  F           22.241382       17.628327       21.042282
  F           20.227456       18.325188       21.474704
  F           21.523726       17.633521       23.102948
  N           17.458484        7.087163       22.325589
  C           16.389298        6.644447       22.230488
  N           15.038923        6.099377       22.190670
  S           14.358675        6.288253       20.762634
  O           15.137236        5.813978       19.619040
  O           12.960341        5.845961       20.728863
  C           14.283108        8.129296       20.623165
  F           13.430188        8.536309       19.641448
  F           15.485505        8.695739       20.333368
  F           13.835519        8.715510       21.778033
  N            0.999933        4.949171        7.181627
  C            1.098337        6.101627        7.283411
  N            1.233085        7.537325        7.490332
  S            1.748700        8.285254        6.181728
  O            0.999938        8.011736        4.955578
  O            1.996588        9.715090        6.396714
  C            3.423000        7.536580        5.956327
  F            4.200151        8.261498        5.103431
  F            3.383378        6.275733        5.447117
  F            4.119450        7.467819        7.134431
  N           25.234629       15.593401       22.092296
  C           25.382064       14.495407       22.439961
  N           25.646456       13.127607       22.865897
  S           24.511882       12.572738       23.836753
  O           23.138724       12.702199       23.350362
  O           24.810484       11.237502       24.365981
  C           24.668444       13.709122       25.285449
  F           24.037538       13.223053       26.391159
  F           24.136393       14.940972       25.061692
  F           25.975091       13.900860       25.650978
  N           23.708541       18.091384       27.290185
  C           23.216060       19.076670       26.922932
  N           22.526666       20.275642       26.465328
  S           23.327305       21.603350       26.831211
  O           24.731731       21.632255       26.424207
  O           22.601407       22.828259       26.477985
  C           23.313590       21.553223       28.678344
  F           23.637248       22.757341       29.228113
  F           24.193852       20.655491       29.197783
  F           22.077906       21.231850       29.175841
  N           34.614990       15.475791       15.810978
  C           35.108232       16.505328       15.598924
  N           35.721542       17.780904       15.254024
  S           35.491521       18.880814       16.383179
  O           35.860464       18.484946       17.741880
  O           36.005239       20.203451       16.010586
  C           33.652262       19.058072       16.365701
  F           33.238315       20.189108       17.003121
  F           33.007537       18.027053       16.975562
  F           33.154675       19.140099       15.091582
  N           26.491113        3.250565       34.651197
  C           25.830838        2.519020       34.037130
  N           25.049988        1.540963       33.291558
  S           23.544360        2.014835       33.076549
  O           23.372800        3.350593       32.506270
  O           22.709817        0.999998       32.424059
  C           22.925275        2.099442       34.815565
  F           21.564821        2.149144       34.875518
  F           23.370252        3.192963       35.491441
  F           23.294826        1.001841       35.547961
  N            7.194968        4.203300       32.470663
  C            7.776748        5.181207       32.701815
  N            8.526026        6.376966       33.063674
  S            9.073702        7.150852       31.783498
  O            8.082160        7.458897       30.753521
  O            9.923134        8.297280       32.124480
  C           10.223485        5.902160       31.053178
  F           11.073157        6.455587       30.142861
  F            9.580127        4.895995       30.401777
  F           11.018556        5.316288       32.003081
  N           22.094151        9.461377       11.672888
  C           21.014960        9.628118       12.067532
  N           19.637528        9.850160       12.486553
  S           19.298158        9.100380       13.850502
  O           20.218255        9.349420       14.959692
  O           17.887756        9.218949       14.236259
  C           19.516978        7.329515       13.370134
  F           18.950269        6.478315       14.270801
  F           20.821647        6.956915       13.272108
  F           18.931077        7.046666       12.164143
  N           11.707471       23.356451        5.168052
  C           11.618417       22.199535        5.125442
  N           11.514868       20.752596        4.991858
  S           11.981417       19.994257        6.312825
  O           11.356276       20.440565        7.557376
  O           11.989880       18.534714        6.165298
  C           13.762346       20.476663        6.413687
  F           14.464218       19.678054        7.266037
  F           13.949698       21.750192        6.853713
  F           14.392195       20.378467        5.200696
  N           30.582649       21.494926       10.172291
  C           31.644182       21.908504       10.396570
  N           32.947145       22.501750       10.665916
  S           33.839274       21.582925       11.613316
  O           33.986834       20.189788       11.193440
  O           35.112513       22.208180       11.987505
  C           32.839449       21.563204       13.167202
  F           33.560769       21.126350       14.237602
  F           31.749305       20.752743       13.094136
  F           32.384977       22.811486       13.503279
  N            9.016527       31.374152       15.406586
  C            9.744766       31.223453       16.298301
  N           10.630641       31.103279       17.448511
  S           11.013509       29.587394       17.753809
  O           11.535755       28.822494       16.621958
  O           11.815835       29.431177       18.971992
  C            9.366053       28.859976       18.167754
  F            9.478481       27.657006       18.797931
  F            8.586643       28.639015       17.074916
  F            8.646338       29.662602       19.013628
  N           29.546326       32.573617       19.823556
  C           30.526645       32.204975       19.322280
  N           31.765343       31.690150       18.754142
  S           31.823659       31.879981       17.173552
  O           31.558341       33.232598       16.684745
  O           33.011851       31.271847       16.564885
  C           30.408649       30.830083       16.616721
  F           30.465204       30.555617       15.283166
  F           29.195329       31.407389       16.829259
  F           30.387532       29.615500       17.250791
  N            1.591310       12.771667       21.326829
  C            2.666063       12.638455       21.745590
  N            3.982393       12.435494       22.335744
  S            5.128211       12.357911       21.231759
  O            5.161373       13.459508       20.270362
  O            6.447063       12.045160       21.792934
  C            4.638100       10.847153       20.287301
  F            5.651511       10.376846       19.507102
  F            3.586209       11.054914       19.450067
  F            4.288866        9.812672       21.115302
  N           26.303161       32.659882        5.414809
  C           25.781495       31.953835        6.174783
  N           25.172936       31.100159        7.186265
  S           23.697945       30.652771        6.783842
  O           23.553412       30.057613        5.455762
  O           23.023738       29.882883        7.834946
  C           22.813729       32.274613        6.734934
  F           21.459595       32.122997        6.750258
  F           23.096150       33.006978        5.623862
  F           23.117203       33.059661        7.816277
  N           33.674028       15.478699       30.788995
  C           33.033750       15.212112       29.857772
  N           32.194753       14.820064       28.733235
  S           31.960694       16.021132       27.713259
  O           33.167273       16.699466       27.241104
  O           31.030693       15.682816       26.630327
  C           31.049550       17.235912       28.766220
  F           30.436851       18.201404       28.025055
  F           31.852715       17.892435       29.646279
  F           30.058628       16.639416       29.501043
  N            5.647453       18.389057       24.758637
  C            5.220963       19.466995       24.824640
  N            4.684250       20.821297       24.826817
  S            3.871354       21.141246       26.158933
  O            4.570671       20.864573       27.413248
  O            3.229262       22.460100       26.137899
  C            2.480990       19.928894       26.050810
  F            1.460982       20.238795       26.899600
  F            2.852144       18.657118       26.359728
  F            1.928949       19.888535       24.797286
  N           13.583225        5.289974       30.869234
  C           13.198637        4.301652       31.342004
  N           12.665889        3.053880       31.872517
  S           13.714868        2.304722       32.808522
  O           14.299826        3.109600       33.880388
  O           13.242678        0.993575       33.266812
  C           15.080855        1.934369       31.620448
  F           15.942208        0.995320       32.103311
  F           15.841525        3.021654       31.320792
  F           14.610372        1.438791       30.432699
  N           33.401059        2.003748       22.807226
  C           33.853943        1.692622       21.784339
  N           34.364472        1.246185       20.495055
  S           35.148462        2.401864       19.728592
  O           36.200044        3.072402       20.492433
  O           35.577691        2.009899       18.381660
  C           33.811785        3.649617       19.462122
  F           34.153650        4.577558       18.524597
  F           33.499032        4.349876       20.585698
  F           32.650918        3.073828       19.016524
  N           16.659222       31.648892       34.304319
  C           15.964857       30.745818       34.079565
  N           15.105075       29.626488       33.718903
  S           15.058451       28.515321       34.859444
  O           14.738601       28.995637       36.203279
  O           14.286774       27.328491       34.474674
  C           16.817143       27.950071       34.905221
  F           16.959412       26.763894       35.560692
  F           17.646844       28.826696       35.532696
  F           17.326812       27.749893       33.649090
  N           24.509028       32.379079       13.347521
  C           24.187467       31.329407       13.725656
  N           23.861890       29.991382       14.200934
  S           22.489879       29.960479       15.009841
  O           21.339116       30.559036       14.334286
  O           22.195016       28.646516       15.591785
  C           22.879787       31.047563       16.452346
  F           21.979102       30.902054       17.464519
  F           22.883156       32.371905       16.141369
  F           24.105554       30.763524       16.995039
  N           33.720591       10.323580        3.126984
  C           32.931206       11.154346        3.313796
  N           31.966408       12.200664        3.624575
  S           31.561356       13.044009        2.335233
  O           31.119281       12.265687        1.178650
  O           30.675075       14.172257        2.641275
  C           33.174789       13.814237        1.868131
  F           33.016967       14.852669        1.000000
  F           34.028978       12.945959        1.262280
  F           33.834020       14.327882        2.954078
  N           23.748722       15.717926       12.370287
  C           24.828920       15.293372       12.336712
  N           26.192378       14.793500       12.221339
  S           26.876390       14.585219       13.644872
  O           26.116487       13.785812       14.605287
  O           28.285254       14.186765       13.553008
  C           26.907957       16.311770       14.302614
  F           27.756597       16.443855       15.360567
  F           25.693889       16.742043       14.740226
  F           27.334199       17.213370       13.362861
  N           19.192470        2.718365        7.995773
  C           18.627863        2.110273        7.183589
  N           17.858373        1.338930        6.216576
  S           18.259258        1.689954        4.715318
  O           19.686992        1.622870        4.405517
  O           17.423113        1.006794        3.722215
  C           17.777823        3.470559        4.604567
  F           17.704392        3.904408        3.314884
  F           18.652465        4.303328        5.230744
  F           16.543810        3.705608        5.151982
  N           27.979534       20.474721       35.103845
  C           27.269869       21.287105       35.533505
  N           26.440639       22.358806       36.068328
  S           24.893749       22.126424       35.766950
  O           24.358768       20.821681       36.154689
  O           24.049291       23.245275       36.199573
  C           24.858039       22.184367       33.920340
  F           23.595993       22.354115       33.435237
  F           25.333839       21.050671       33.338149
  F           25.596077       23.226422       33.423227
  N           30.303217       33.116664        1.101464
  C           30.254805       32.818638        2.222640
  N           30.117202       32.469192        3.630175
  S           31.127252       31.315645        4.062409
  O           32.532345       31.540454        3.724658
  O           30.933194       30.870429        5.446686
  C           30.552685       29.902926        3.019002
  F           31.038489       28.707959        3.458261
  F           30.934103       30.006714        1.717330
  F           29.187944       29.779852        3.024756
  N           20.039913       18.645161        1.860567
  C           20.284240       17.623456        2.355163
  N           20.607652       16.381195        3.043924
  S           19.850528       15.130728        2.410839
  O           19.991334       14.966971        0.964375
  O           20.074526       13.886169        3.154478
  C           18.081817       15.564840        2.723579
  F           17.255482       14.490700        2.581126
  F           17.605432       16.518643        1.878643
  F           17.882395       16.027204        3.998001
  N            7.052030       23.993011       11.024700
  C            7.553764       22.979923       10.759907
  N            8.178092       21.729232       10.349803
  S            9.121656       21.130385       11.485042
  O            8.515385       20.991234       12.808663
  O            9.846380       19.929265       11.055873
  C           10.413417       22.443628       11.631154
  F           11.520804       22.004662       12.292896
  F            9.985829       23.544852       12.305745
  F           10.852141       22.873296       10.406162
  N           36.066720       24.200591       22.498835
  C           34.938914       23.973641       22.656155
  N           33.530926       23.717622       22.928593
  S           32.651841       23.730612       21.600158
  O           33.127873       22.875285       20.513553
  O           31.215473       23.583818       21.859774
  C           32.860313       25.475544       21.028885
  F           31.928232       25.827362       20.099182
  F           34.070464       25.711493       20.454028
  F           32.726037       26.373247       22.055432
  N            8.752658        1.784403        5.454885
  C            8.474154        2.780408        5.982719
  N            8.113731        4.062939        6.572133
  S            7.511861        3.900384        8.038090
  O            8.316292        3.114201        8.972813
  O            7.040464        5.166524        8.609729
  C            5.978960        2.922559        7.708436
  F            5.114071        2.951281        8.761072
  F            6.223711        1.607571        7.460441
  F            5.280369        3.406514        6.633513
  N            5.721163       11.285587       25.023355
  C            4.708052       10.718319       25.026977
  N            3.449789        9.988783       25.109145
  S            2.384390       10.510612       24.045980
  O            2.848405       10.578631       22.660713
  O            1.073514        9.866217       24.181840
  C            2.122199       12.253421       24.601385
  F            0.998492       12.802333       24.060203
  F            3.145015       13.084334       24.263702
  F            1.968778       12.343593       25.960072
  N           11.583978       26.909993       20.434850
  C           12.008441       26.058228       21.100076
  N           12.506981       24.936423       21.884431
  S           13.826844       25.311181       22.693887
  O           13.747790       26.517594       23.516820
  O           14.409373       24.167833       23.404883
  C           15.013578       25.681246       21.326659
  F           16.306564       25.692770       21.756722
  F           14.801561       26.892385       20.744601
  F           14.957073       24.744819       20.327854
  Li           6.137489       26.771190       34.998833
  Li          10.340947       28.483611       10.898112
  Li           4.269944       32.366986        9.115622
  Li          30.606658       17.856134        2.801632
  Li          33.720988        7.086041        5.659510
  Li          11.158625       31.734377       30.808291
  Li          30.632335        3.888038       34.772960
  Li           1.761561        3.398883       31.133997
  Li           1.812098       21.366789       15.518013
  Li          28.437903       10.794434       29.161470
  Li           1.295417       14.973641       15.373302
  Li          29.591102       13.307560       29.059038
  Li          25.635033       22.827862        7.289262
  Li          27.919262       16.289999       29.936757
  Li           3.724403       26.056709       23.289247
  Li           6.031150       14.036424       31.967722
  Li          12.099253        7.087987       24.002803
  Li           4.140804       32.659121       33.665083
  Li           8.076180       31.748924       13.453564
  Li          33.790036       10.451290       30.570078
  Li          17.562739       22.082595       27.395960
  Li          31.823933       35.512218       27.877507
  Li          15.487916        8.424930       23.233341
  Li          19.275298       15.159535       13.453076
  Li           5.006811        8.844100       26.206381
  Li          31.475040       11.485949       14.749642
  Li          30.587675        9.210104        2.212229
  Li           4.110168       10.425879        5.712302
  Li           3.905074       21.725402       34.491998
  Li          16.796624       34.089726       16.891700
  Li          11.647613        8.466509       17.983241
  Li          12.444510       31.743453       10.841460
  Li          36.108029       30.221776       14.190644
  Li          21.202507       12.213541       10.724985
  Li          11.638398        3.955090       27.398638
  Li          24.479925       24.202683       20.018617
  Li          14.852466       10.802042       20.385833
  Li          18.853669       20.776560       11.377237
  Li           1.716816       17.834993       35.214460
  Li           3.821936       33.220472       23.065582
  Li          25.564680       10.917171       22.316700
  Li           2.925745       10.603252       13.580864
  Li          21.044585       10.615725        6.409731
  Li           1.935430       33.628683       32.951066
  Li          30.810287       26.162787       18.159994
  Li          33.096425       14.455417        5.713545
  Li          18.159263       10.439236       33.105845
  Li          11.966104       28.900859       29.346562
  Li          23.832832       19.699900       34.336748
  Li          25.158415       13.169508        4.142618
  Li          28.030449        4.870083       17.218308
  Li          22.726380       11.783171       27.415022
  Li          27.387841        3.480272       15.629502
  Li           6.455001       27.804430       28.125505
  Li          10.186120       35.681667       27.090664
  Li          11.915940       25.648073       14.332317
  Li          24.463260        1.912458       19.701991
  Li          18.808002       12.438232       33.754988
  Li          18.387122       21.745007       13.829187
  Li          32.238220       24.274754       11.758057
