19
EMIM
C       -2.680000     0.130000     0.740000
C       -1.900000     0.340000    -0.540000
N       -0.500000    -0.070000    -0.380000
C        0.020000    -1.330000    -0.660000
C        1.350000    -1.280000    -0.360000
N        1.610000     0.010000     0.090000
C        2.910000     0.510000     0.530000
C        0.480000     0.720000     0.080000
H       -3.720000     0.450000     0.600000
H       -2.680000    -0.920000     1.030000
H       -2.250000     0.710000     1.560000
H       -1.910000     1.390000    -0.830000
H       -2.340000    -0.240000    -1.360000
H       -0.630000    -2.100000    -1.040000
H        2.160000    -1.990000    -0.410000
H        2.830000     1.560000     0.800000
H        3.250000    -0.070000     1.390000
H        3.630000     0.400000    -0.290000
H        0.370000     1.760000     0.380000
