        5100
  Built with Packmol                                             
  O           41.077661       31.122195       15.086016
  S           40.453808       32.386376       14.774159
  O           40.838235       33.616278       15.439184
  C           40.526473       32.633827       13.010502
  C           39.085838       32.912150       12.589779
  C           38.208650       32.007363       13.455632
  C           38.682896       32.205861       14.878969
  H           41.200003       33.462439       12.773315
  H           40.893577       31.712516       12.551567
  H           38.936176       32.717537       11.522433
  H           38.833593       33.962377       12.781341
  H           38.355034       30.958167       13.148777
  H           37.148327       32.239819       13.347093
  H           38.437720       31.362299       15.531956
  H           38.278252       33.130676       15.302149
  O            1.033407       22.796889       22.487980
  S            1.919410       22.288864       23.508524
  O            1.813851       20.932464       24.010257
  C            3.600905       22.589391       22.999351
  C            4.241614       23.333916       24.167715
  C            3.162779       24.266433       24.719373
  C            1.924060       23.414319       24.891647
  H            4.103243       21.642961       22.779290
  H            3.579543       23.216447       22.104619
  H            5.130308       23.889092       23.849118
  H            4.546890       22.623138       24.945468
  H            2.971923       25.072064       23.990722
  H            3.465801       24.732929       25.657807
  H            0.999601       24.000387       24.891363
  H            1.982747       22.816971       25.806978
  O           30.715735       20.689474       21.985607
  S           31.129207       20.500357       20.615251
  O           32.004420       19.413472       20.221065
  C           29.676052       20.477856       19.583342
  C           29.937012       21.529819       18.508553
  C           30.673414       22.674479       19.205164
  C           31.796372       22.031044       19.989483
  H           29.526420       19.478585       19.164335
  H           28.816640       20.756318       20.198216
  H           29.003755       21.871455       18.048318
  H           30.571395       21.111082       17.717656
  H           29.978687       23.190242       19.889082
  H           31.048295       23.412465       18.494573
  H           32.142703       22.649054       20.823880
  H           32.639924       21.784664       19.336937
  O            5.805413       11.058363       21.189093
  S            4.431810       11.487878       21.304558
  O            3.659436       11.271762       22.512628
  C            4.337681       13.210548       20.856731
  C            3.262724       13.280631       19.775318
  C            3.427406       12.016680       18.930860
  C            3.506402       10.867447       19.912299
  H            4.089963       13.815305       21.733888
  H            5.309219       13.513033       20.458213
  H            3.363968       14.186985       19.168876
  H            2.266491       13.289632       20.234382
  H            4.362994       12.086695       18.351055
  H            2.607407       11.887648       18.223010
  H            4.009828        9.987577       19.499391
  H            2.510681       10.588968       20.271589
  O           10.911659       18.910627        7.757095
  S           12.001773       18.287651        8.469943
  O           13.364528       18.329281        7.976116
  C           11.978432       18.864255       10.156354
  C           11.965226       17.597605       11.008013
  C           11.084312       16.594425       10.262748
  C           11.572775       16.594805        8.830406
  H           12.852383       19.492163       10.352419
  H           11.063327       19.442360       10.306615
  H           11.585586       17.797162       12.015759
  H           12.981780       17.196298       11.102192
  H           10.034636       16.930051       10.306732
  H           11.132995       15.598716       10.705799
  H           10.814396       16.249049        8.120889
  H           12.479999       15.991549        8.724925
  O           14.006307       32.925799       36.593146
  S           13.046973       33.647219       35.790753
  O           13.163936       33.733346       34.347978
  C           11.412783       33.069598       36.206419
  C           10.625055       34.328803       36.558253
  C           11.599461       35.245992       37.297913
  C           12.852519       35.292350       36.450625
  H           10.978877       32.525836       35.362294
  H           11.494688       32.408494       37.072694
  H            9.748138       34.093878       37.170891
  H           10.276488       34.823154       35.643147
  H           11.825046       34.813834       38.287231
  H           11.183099       36.241543       37.457983
  H           13.744531       35.566390       37.022741
  H           12.730095       35.977725       35.606011
  O           16.208599       20.435357       15.546589
  S           15.404079       20.556550       14.353836
  O           15.590875       21.640928       13.409414
  C           15.457407       19.006771       13.475007
  C           13.995850       18.620945       13.263138
  C           13.256376       19.047043       14.531766
  C           13.679830       20.474765       14.801021
  H           16.000352       19.125876       12.532921
  H           15.964558       18.273504       14.106923
  H           13.888817       17.547302       13.075162
  H           13.585600       19.158692       12.399527
  H           13.563072       18.395394       15.367046
  H           12.174319       18.960304       14.423466
  H           13.558082       20.765448       15.849248
  H           13.135427       21.173540       14.158029
  O           37.888306       23.769949       18.192427
  S           38.134078       22.365440       17.965380
  O           38.087685       21.783279       16.638113
  C           39.681148       21.929557       18.735821
  C           39.353906       20.742615       19.638031
  C           37.968969       21.022852       20.222169
  C           37.092438       21.407004       19.049855
  H           40.426117       21.683832       17.973496
  H           40.020728       22.783899       19.326571
  H           40.105944       20.618767       20.424542
  H           39.324748       19.818013       19.048488
  H           38.038628       21.860947       20.935713
  H           37.569674       20.161749       20.759910
  H           36.222608       22.002519       19.344572
  H           36.763777       20.520454       18.498392
  O           12.054215       29.898119       40.909810
  S           13.161816       29.245326       40.252784
  O           14.219019       28.591161       40.999168
  C           12.512321       28.104748       39.046865
  C           13.202530       28.477101       37.737337
  C           13.318805       30.001660       37.737587
  C           13.897032       30.375033       39.085343
  H           12.719445       27.074903       39.351855
  H           11.433281       28.261963       38.975066
  H           12.638311       28.115699       36.870996
  H           14.204117       28.031366       37.699333
  H           12.314762       30.442426       37.619165
  H           13.939371       30.364945       36.917209
  H           13.668561       31.404965       39.377131
  H           14.979920       30.216746       39.105335
  O           18.759531       18.791646       31.693960
  S           19.679151       18.232794       30.731367
  O           19.479340       18.382451       29.302949
  C           21.327657       18.769398       31.145473
  C           22.149787       17.486800       31.240039
  C           21.231364       16.439696       31.870811
  C           19.931702       16.506172       31.098372
  H           21.704985       19.453739       30.380096
  H           21.288366       19.277217       32.112311
  H           23.058007       17.636725       31.833469
  H           22.450396       17.157211       30.237889
  H           21.058600       16.698411       32.928931
  H           21.668407       15.440602       31.840744
  H           19.077950       16.122634       31.665916
  H           20.012998       15.971734       30.146602
  O           41.168391       21.547276       39.557862
  S           39.824699       22.066853       39.462298
  O           38.724830       21.492157       40.212438
  C           39.874356       23.823478       39.760297
  C           39.173572       24.449378       38.557363
  C           39.580281       23.610397       37.345547
  C           39.357791       22.167586       37.744290
  H           39.376678       24.059969       40.705224
  H           40.921592       24.132733       39.803422
  H           39.454775       25.500545       38.432970
  H           38.085536       24.402984       38.688992
  H           40.646923       23.783964       37.125210
  H           39.010044       23.875595       36.454144
  H           39.959300       21.465394       37.158447
  H           38.299327       21.898700       37.670437
  O           16.878253       23.718594       30.455402
  S           17.673406       23.244208       31.563233
  O           17.106077       23.037103       32.881544
  C           18.521079       21.760150       31.057247
  C           19.994037       22.022515       31.359670
  C           20.238255       23.496130       31.033151
  C           19.128111       24.263882       31.717503
  H           18.128451       20.896977       31.602477
  H           18.363218       21.626059       29.984260
  H           20.645815       21.366031       30.773398
  H           20.198494       21.841933       32.422162
  H           20.183067       23.640057       29.941071
  H           21.223065       23.830548       31.362414
  H           18.941479       25.241368       31.261663
  H           19.336568       24.387537       32.784909
  O           16.110743       10.050564        7.161205
  S           16.001366        9.767537        8.572776
  O           15.474014       10.738969        9.511349
  C           15.123364        8.229681        8.775537
  C           16.029239        7.368846        9.652037
  C           17.460967        7.673182        9.210071
  C           17.574243        9.181872        9.175068
  H           14.146354        8.410621        9.232934
  H           14.994664        7.777663        7.788969
  H           15.792529        6.304591        9.547966
  H           15.903412        7.642378       10.706858
  H           17.626482        7.255859        8.202675
  H           18.199096        7.228158        9.878816
  H           18.374154        9.534517        8.516369
  H           17.717883        9.588151       10.181251
  O           18.548037        8.898000       28.316391
  S           18.858134        7.499332       28.137033
  O           17.825844        6.481164       28.116789
  C           19.871692        7.326263       26.681098
  C           21.102477        6.551718       27.144938
  C           21.419248        7.061192       28.551314
  C           20.111753        7.023191       29.312374
  H           19.318147        6.802782       25.896206
  H           20.149057        8.325932       26.337686
  H           21.947192        6.697576       26.463263
  H           20.879682        5.478326       27.183577
  H           21.791839        8.097252       28.486842
  H           22.188642        6.461848       29.040108
  H           20.094603        7.708669       30.165560
  H           19.883376        6.007269       29.649787
  O           31.437374       30.908115       27.928795
  S           30.299648       31.092703       27.059251
  O           30.230075       30.480562       25.746565
  C           28.820922       30.686136       27.967585
  C           27.917105       31.907331       27.820282
  C           28.839223       33.125985       27.869080
  C           29.963685       32.836547       26.898508
  H           28.367029       29.777292       27.562019
  H           29.095206       30.530407       29.013871
  H           27.160086       31.942351       28.610976
  H           27.397410       31.877165       26.854722
  H           29.238406       33.238599       28.891025
  H           28.313508       34.047472       27.614942
  H           30.872191       33.407140       27.115627
  H           29.648847       33.021401       25.866614
  O           11.356421       31.401225       21.048089
  S           12.691798       31.660427       21.532014
  O           12.961667       32.674158       22.533124
  C           13.411998       30.117908       22.060168
  C           14.737493       30.021876       21.309342
  C           14.480088       30.601834       19.918230
  C           13.776706       31.923057       20.141438
  H           13.544133       30.115542       23.146001
  H           12.739474       29.308666       21.765141
  H           15.092712       28.987256       21.255664
  H           15.504040       30.617221       21.820488
  H           13.828248       29.914607       19.353231
  H           15.402718       30.726476       19.349618
  H           13.191386       32.246553       19.274921
  H           14.490080       32.705591       20.418635
  O           35.511634       29.265970       20.243362
  S           36.048773       29.993048       19.117556
  O           35.572944       29.774212       17.765373
  C           35.976327       31.736174       19.482605
  C           37.398085       32.246375       19.263062
  C           38.327738       31.139555       19.761556
  C           37.826851       29.858914       19.129678
  H           35.248972       32.228214       18.830416
  H           35.678936       31.853835       20.527552
  H           37.571431       33.188418       19.794103
  H           37.574531       32.422188       18.194765
  H           38.257950       31.074181       20.860308
  H           39.370267       31.334919       19.506474
  H           38.123879       28.964147       19.685795
  H           38.161795       29.776640       18.090860
  O           40.822572       37.601187        5.500535
  S           39.831007       37.825586        6.525739
  O           39.390774       36.765889        7.412269
  C           40.335230       39.227698        7.503922
  C           39.137814       40.174160        7.486461
  C           38.538498       40.074283        6.083376
  C           38.398282       38.595366        5.794686
  H           40.600765       38.906199        8.515173
  H           41.200453       39.687713        7.020212
  H           39.435756       41.200550        7.725738
  H           38.394802       39.855448        8.227849
  H           39.228781       40.539300        5.359727
  H           37.581537       40.592766        6.009209
  H           38.366901       38.370767        4.723859
  H           37.511337       38.182061        6.285205
  O           30.585514       35.314868       12.318620
  S           30.440085       35.265217       10.883007
  O           31.100030       36.218089       10.011681
  C           30.822924       33.613943       10.331891
  C           29.613795       33.181310        9.506824
  C           28.388209       33.759909       10.214610
  C           28.705465       35.216964       10.472561
  H           31.748855       33.615840        9.749526
  H           30.938690       32.978359       11.213272
  H           29.554943       32.090742        9.424982
  H           29.682454       33.593985        8.492780
  H           28.235889       33.229024       11.169262
  H           27.480015       33.643164        9.621605
  H           28.121460       35.641648       11.295168
  H           28.560334       35.816333        9.568242
  O            7.527044       31.900472        3.694025
  S            6.943508       31.097319        2.645678
  O            6.964813       31.515073        1.257252
  C            7.602882       29.445603        2.764257
  C            6.379947       28.534216        2.825125
  C            5.338370       29.277192        3.662324
  C            5.269288       30.678003        3.093854
  H            8.242417       29.232042        1.902930
  H            8.184903       29.375999        3.686541
  H            6.628018       27.560601        3.261053
  H            5.986928       28.363133        1.815389
  H            5.672532       29.309107        4.712903
  H            4.365989       28.783224        3.638431
  H            4.886473       31.411065        3.810913
  H            4.664341       30.702149        2.181957
  O           16.821655       30.921117       36.278534
  S           18.026571       31.435957       35.672139
  O           18.125498       31.675302       34.245384
  C           18.511872       32.913580       36.542836
  C           19.964181       32.675783       36.947991
  C           20.064178       31.195966       37.319397
  C           19.411751       30.436709       36.184467
  H           18.394837       33.788036       35.896206
  H           17.874618       33.014706       37.424811
  H           20.257577       33.321812       37.782296
  H           20.630764       32.889368       36.103391
  H           19.515588       31.019743       38.259820
  H           21.097327       30.881749       37.474224
  H           19.058546       29.444445       36.482392
  H           20.091094       30.346389       35.330983
  O           30.776519       34.938061       31.767992
  S           30.846134       35.150196       33.194439
  O           30.106357       36.211693       33.849155
  C           30.493874       33.607180       34.014204
  C           31.671617       33.382496       34.958841
  C           32.911908       33.881106       34.216636
  C           32.556750       35.253602       33.687187
  H           29.538464       33.670550       34.543048
  H           30.448689       32.820911       33.256616
  H           31.765201       32.327465       35.237502
  H           31.533647       33.964819       35.878169
  H           33.134420       33.196857       33.380758
  H           33.790469       33.912310       34.862591
  H           33.168530       35.551653       32.829871
  H           32.631308       36.009655       34.475176
  O           34.486757       20.005676       27.143962
  S           34.771099       21.050683       28.098797
  O           33.794164       22.067569       28.436793
  C           35.368121       20.298502       29.600392
  C           36.695441       20.993849       29.891274
  C           37.360239       21.224060       28.533760
  C           36.301288       21.849925       27.652217
  H           34.639402       20.432655       30.405049
  H           35.521556       19.233280       29.410764
  H           37.326595       20.390476       30.552399
  H           36.515893       21.958479       30.381734
  H           37.678281       20.254131       28.116044
  H           38.245160       21.857039       28.613473
  H           36.493960       21.703946       26.584665
  H           36.193885       22.918082       27.865770
  O           25.087663       12.311261       18.488463
  S           26.220716       13.038045       17.966376
  O           27.542488       12.921502       18.551216
  C           26.332747       12.729685       16.214417
  C           26.368100       14.112986       15.570112
  C           25.420488       14.987865       16.391342
  C           25.798816       14.765951       17.839727
  H           27.226970       12.140445       15.991568
  H           25.439109       12.181105       15.906730
  H           26.068594       14.071676       14.517454
  H           27.383684       14.524860       15.617528
  H           24.381529       14.662260       16.215429
  H           25.489984       16.040236       16.112440
  H           24.984448       14.996984       18.533650
  H           26.687676       15.346311       18.106582
  O           25.220792       35.291867       39.143986
  S           26.325496       36.179892       38.868962
  O           26.149350       37.420007       38.138354
  C           27.169971       36.524238       40.400395
  C           28.632374       36.178207       40.132928
  C           28.618161       34.941571       39.233857
  C           27.647898       35.251507       38.114604
  H           27.031610       37.572667       40.679951
  H           26.752709       35.874502       41.173658
  H           29.176508       35.992949       41.065182
  H           29.126362       37.007145       39.611259
  H           28.263605       34.074000       39.815245
  H           29.611577       34.701517       38.852284
  H           27.241604       34.352269       37.640899
  H           28.113366       35.890112       37.357224
  O           36.832795       31.779859       25.724276
  S           36.289999       32.874833       24.955507
  O           37.094171       33.617057       24.004134
  C           34.803112       32.316421       24.146592
  C           33.731357       33.327322       24.545742
  C           34.020551       33.700308       26.000063
  C           35.496756       34.028005       26.060341
  H           34.956069       32.272899       23.064367
  H           34.559843       31.321875       24.528560
  H           32.725229       32.910833       24.428513
  H           33.803450       34.221771       23.914818
  H           33.795918       32.836542       26.648019
  H           33.407048       34.536739       26.337845
  H           35.916709       33.921721       27.065549
  H           35.690475       35.037290       25.683621
  O           15.273707       28.872213       31.132887
  S           16.478939       28.199996       31.557316
  O           17.290587       27.426775       30.637502
  C           17.518707       29.378760       32.397792
  C           17.832857       28.738507       33.747342
  C           16.557590       28.014873       34.180757
  C           16.116438       27.196943       32.986364
  H           18.418426       29.576126       31.807831
  H           16.949826       30.302446       32.529618
  H           18.141288       29.488324       34.483646
  H           18.649104       28.013642       33.639588
  H           15.786281       28.760403       34.437016
  H           16.720227       27.390189       35.060200
  H           15.048806       26.956279       33.004896
  H           16.701654       26.275636       32.903807
  O           16.060085       29.980548        3.935836
  S           16.728249       28.948749        3.178508
  O           16.063098       28.229007        2.109749
  C           18.268368       29.603812        2.565377
  C           19.332975       28.613323        3.029534
  C           18.905372       28.153144        4.423518
  C           17.446466       27.768504        4.305843
  H           18.230796       29.699136        1.476340
  H           18.426807       30.584938        3.019789
  H           20.327296       29.072267        3.043574
  H           19.367055       27.751631        2.351578
  H           19.022285       28.988937        5.133575
  H           19.513982       27.323127        4.785134
  H           16.916874       27.805645        5.263054
  H           17.337308       26.774218        3.861343
  O            7.033380       38.004347        4.254203
  S            7.055165       36.616097        4.650292
  O            7.533096       36.197677        5.953828
  C            5.435558       35.923848        4.377043
  C            5.673741       34.686458        3.515630
  C            6.800686       35.052690        2.549364
  C            7.894567       35.664033        3.397823
  H            4.961613       35.684071        5.333277
  H            4.835551       36.661690        3.838730
  H            4.764754       34.389981        2.981453
  H            5.987103       33.844144        4.144606
  H            6.427828       35.790942        1.819733
  H            7.158929       34.186518        1.991236
  H            8.562997       36.316354        2.827054
  H            8.478219       34.888699        3.904092
  O           34.343320       29.058164       24.638298
  S           32.978239       28.882443       24.202091
  O           31.874413       28.824423       25.140655
  C           32.618653       30.108541       22.959360
  C           32.089713       29.318832       21.765006
  C           32.906835       28.027482       21.714755
  C           32.887757       27.467577       23.120579
  H           31.890165       30.829854       23.340822
  H           33.550397       30.619593       22.704646
  H           32.181188       29.890531       20.835332
  H           31.029587       29.078357       21.911988
  H           33.941144       28.263744       21.413449
  H           32.504828       27.316645       20.991428
  H           33.727674       26.795728       23.323700
  H           31.944136       26.951899       23.324920
  O           22.489906       29.563782        2.582192
  S           22.786773       30.947873        2.298008
  O           23.723707       31.334209        1.260896
  C           21.250800       31.815856        2.044252
  C           21.301751       33.000603        3.005334
  C           21.984273       32.488608        4.274123
  C           23.235579       31.772585        3.813965
  H           21.161620       32.127145        0.999434
  H           20.430938       31.141295        2.303083
  H           20.299373       33.388859        3.215085
  H           21.895783       33.813590        2.570042
  H           21.310583       31.783825        4.789703
  H           22.214153       33.296840        4.969835
  H           23.597262       31.036809        4.539168
  H           24.032935       32.485630        3.581825
  O           27.150199        7.591021       32.107192
  S           26.695327        6.364160       31.496861
  O           27.468897        5.139672       31.566988
  C           25.035771        6.034324       32.057291
  C           24.217350        5.845522       30.782756
  C           24.769531        6.850361       29.771225
  C           26.273114        6.680239       29.793473
  H           25.023332        5.148281       32.698597
  H           24.685666        6.904628       32.617823
  H           23.149217        6.003378       30.966257
  H           24.348157        4.826436       30.398498
  H           24.497527        7.871194       30.087951
  H           24.359984        6.692782       28.772456
  H           26.808182        7.567710       29.441056
  H           26.578116        5.807654       29.207240
  O           21.213609       29.207747       38.896352
  S           22.437157       28.531821       38.534890
  O           23.022351       28.658730       37.214231
  C           23.677000       28.912953       39.757399
  C           24.197349       27.557962       40.229772
  C           22.985116       26.626810       40.265085
  C           22.287882       26.800117       38.933158
  H           24.462816       29.533426       39.316936
  H           23.193928       29.450296       40.577218
  H           24.676559       27.633739       41.211666
  H           24.938624       27.170737       39.519936
  H           22.316319       26.932416       41.087105
  H           23.271424       25.588600       40.439005
  H           21.230095       26.520609       38.965731
  H           22.796153       26.232545       38.147269
  O            8.947880       11.534025       28.089115
  S            8.656252       10.338123       28.843682
  O            9.348878       10.021685       30.077714
  C            6.898553       10.263814       29.129991
  C            6.471654        8.890208       28.619242
  C            7.312000        8.621944       27.370382
  C            8.742872        8.926270       27.757925
  H            6.683529       10.400980       30.193687
  H            6.424317       11.058454       28.548744
  H            5.399435        8.861308       28.397856
  H            6.682103        8.124670       29.376185
  H            6.985435        9.296450       26.561186
  H            7.199420        7.597163       27.013661
  H            9.376819        9.162939       26.897577
  H            9.181123        8.097719       28.323202
  O           37.912129        4.144118       35.141820
  S           37.189376        4.786341       34.069544
  O           37.455782        4.484784       32.676421
  C           35.442857        4.608007       34.377553
  C           34.882810        6.026620       34.316042
  C           35.941681        6.928672       34.950781
  C           37.254187        6.553710       34.297380
  H           34.993651        3.947201       33.630526
  H           35.314167        4.183048       35.376076
  H           33.923453        6.100911       34.839125
  H           34.723512        6.323867       33.272218
  H           35.985854        6.729611       36.034674
  H           35.711632        7.986628       34.816966
  H           38.124489        6.813600       34.908225
  H           37.345937        7.013918       33.308497
  O           13.875974        8.016419       15.232718
  S           14.966959        7.097896       15.007620
  O           14.801164        5.885966       14.228880
  C           16.355031        8.013768       14.366189
  C           17.519705        7.666439       15.289658
  C           16.929786        7.564444       16.696567
  C           15.709705        6.677644       16.573320
  H           16.545493        7.731208       13.326774
  H           16.117555        9.078825       14.424998
  H           18.310545        8.422327       15.237649
  H           17.954067        6.701225       15.001574
  H           16.635795        8.570154       17.040830
  H           17.648409        7.165290       17.413755
  H           14.984565        6.835362       17.377929
  H           15.994467        5.621484       16.534130
  O           19.339578       27.300584       40.898162
  S           18.668683       26.738922       39.749670
  O           19.222870       25.623562       39.007005
  C           16.989587       26.353708       40.207102
  C           16.123776       27.057540       39.165521
  C           16.817765       28.386361       38.864829
  C           18.270260       28.048682       38.607090
  H           16.839631       25.270211       40.213950
  H           16.805521       26.761396       41.204153
  H           15.102538       27.209402       39.530911
  H           16.070172       26.454745       38.250608
  H           16.731133       29.048110       39.742885
  H           16.365970       28.901115       38.015706
  H           18.941473       28.897306       38.772652
  H           18.408956       27.659996       37.593292
  O           23.064913       29.810285       33.063720
  S           24.149644       30.315628       33.871548
  O           25.166976       29.441873       34.423170
  C           24.943704       31.643532       32.986595
  C           24.945758       32.821241       33.957624
  C           23.617596       32.751534       34.711898
  C           23.481697       31.320349       35.184592
  H           25.952556       31.346243       32.686035
  H           24.343503       31.870964       32.102156
  H           25.060651       33.774232       33.430265
  H           25.777331       32.723767       34.666345
  H           22.794718       33.004110       34.022350
  H           23.581695       33.456670       35.543519
  H           22.443614       31.031161       35.376564
  H           24.086248       31.143567       36.079782
  O            6.679551       37.929937       17.080089
  S            6.173237       39.262268       16.849567
  O            6.690033       40.106665       15.790031
  C            4.398386       39.177117       16.709375
  C            3.871848       40.189548       17.723102
  C            4.802942       40.102239       18.932748
  C            6.210304       40.174750       18.381136
  H            4.089301       39.408970       15.686042
  H            4.083524       38.164428       16.973047
  H            2.832992       39.977493       17.997528
  H            3.910958       41.201070       17.300500
  H            4.644149       39.138169       19.444368
  H            4.610903       40.896726       19.655250
  H            6.954870       39.735401       19.052473
  H            6.487390       41.207465       18.146994
  O           22.367801       35.125994        9.343009
  S           22.399225       33.702186        9.105554
  O           21.436853       32.802087        9.710833
  C           22.427601       33.422180        7.345500
  C           23.634139       32.517995        7.107561
  C           24.715213       32.988118        8.081247
  C           24.042177       33.091170        9.432766
  H           21.489194       32.962960        7.021450
  H           22.561350       34.386323        6.848771
  H           23.975887       32.572274        6.068445
  H           23.371894       31.475068        7.323966
  H           25.084395       33.977713        7.763748
  H           25.567935       32.308135        8.105506
  H           24.558464       33.773268       10.115619
  H           23.944372       32.105562        9.898718
  O           15.107838       25.516767       35.867339
  S           15.813986       24.506599       36.619347
  O           15.465901       24.187459       37.990363
  C           15.839414       23.002905       35.662657
  C           17.311574       22.606982       35.585913
  C           18.095619       23.912719       35.451289
  C           17.565355       24.830206       36.531677
  H           15.224249       22.238150       36.145587
  H           15.444939       23.224678       34.667968
  H           17.501288       21.933794       34.743105
  H           17.611325       22.090620       36.506141
  H           17.907022       24.348533       34.455850
  H           19.171028       23.756056       35.546428
  H           17.732584       25.889380       36.311938
  H           17.999174       24.581730       37.505412
  O           21.759584        5.942055        3.965008
  S           21.138526        4.824693        3.293899
  O           21.826854        3.561865        3.109047
  C           19.555846        4.516471        4.053586
  C           18.554420        4.528288        2.901672
  C           19.026957        5.618898        1.939861
  C           20.503022        5.368531        1.719073
  H           19.572301        3.560518        4.584984
  H           19.350057        5.328859        4.754925
  H           17.536574        4.718437        3.258508
  H           18.558165        3.558407        2.389210
  H           18.874361        6.606193        2.407154
  H           18.470433        5.606431        1.001658
  H           21.043577        6.263086        1.394001
  H           20.660482        4.559398        0.998928
  O           33.231922        9.225349        8.079718
  S           32.523920       10.296381        7.419245
  O           31.843288       10.100319        6.153940
  C           31.386806       11.025219        8.582331
  C           31.706850       12.517614        8.567209
  C           33.225426       12.624446        8.424684
  C           33.601552       11.710142        7.278919
  H           30.355657       10.814554        8.284251
  H           31.584680       10.595957        9.567613
  H           31.351318       13.012155        9.477444
  H           31.221661       12.998318        7.708829
  H           33.702762       12.281066        9.357765
  H           33.548462       13.650849        8.245116
  H           34.645006       11.382056        7.319713
  H           33.401469       12.187058        6.314233
  O           11.413963       16.547976        2.120473
  S           11.917138       17.365492        3.198936
  O           11.646542       18.788121        3.273798
  C           11.460338       16.606340        4.745552
  C           12.767942       16.468910        5.520912
  C           13.837881       16.112252        4.488524
  C           13.674028       17.105654        3.358699
  H           10.726390       17.226731        5.267985
  H           11.031937       15.624355        4.530199
  H           12.691147       15.705541        6.302494
  H           13.022896       17.421451        6.001501
  H           13.661516       15.087041        4.122141
  H           14.842572       16.144752        4.912363
  H           14.079428       16.742448        2.409051
  H           14.131300       18.067297        3.612165
  O            1.015997       25.476871       13.049789
  S            1.631550       26.103169       14.195846
  O            1.035293       26.041548       15.516217
  C            3.324944       25.556454       14.298400
  C            4.151993       26.837917       14.359593
  C            3.458562       27.835160       13.430906
  C            1.993161       27.805588       13.807635
  H            3.464620       24.924836       15.180471
  H            3.555544       24.988706       13.393587
  H            5.189385       26.659235       14.057285
  H            4.160480       27.232346       15.383142
  H            3.589161       27.509099       12.385426
  H            3.878435       28.838049       13.520464
  H            1.337871       28.145138       12.999303
  H            1.807352       28.399334       14.708213
  O            4.375759       17.335924       17.947478
  S            5.509371       16.527846       18.330273
  O            5.795881       16.216094       19.717148
  C            5.467261       15.012781       17.392294
  C            6.840480       14.916800       16.732780
  C            7.225120       16.344614       16.343936
  C            6.981914       17.191250       17.574488
  H            5.259258       14.165962       18.052697
  H            4.680320       15.099621       16.639046
  H            6.820383       14.253040       15.861851
  H            7.573613       14.518934       17.445184
  H            6.579002       16.682116       15.516274
  H            8.260013       16.411937       16.005464
  H            6.829894       18.249753       17.340902
  H            7.801492       17.085102       18.292210
  O           15.128284       25.299790        1.430034
  S           14.329190       25.724576        2.555026
  O           14.890107       25.865545        3.884763
  C           13.491359       27.235340        2.116129
  C           12.015514       26.966133        2.397746
  C           11.766188       25.511060        1.999751
  C           12.868859       24.705934        2.652505
  H           13.884993       28.069474        2.704153
  H           13.655848       27.419828        1.051654
  H           11.370124       27.653148        1.840088
  H           11.805972       27.096686        3.466553
  H           11.826804       25.419277        0.902344
  H           10.777988       25.166172        2.307344
  H           13.053432       23.750462        2.151400
  H           12.653856       24.532388        3.711635
  O           29.641333       26.025280        3.155942
  S           31.014393       26.471697        3.160225
  O           32.103583       25.598951        3.553517
  C           31.384791       27.178991        1.566632
  C           31.938291       28.568982        1.869059
  C           31.131406       29.098132        3.055118
  C           31.132222       27.990784        4.086612
  H           32.101915       26.549389        1.031996
  H           30.453542       27.247295        0.998907
  H           31.857452       29.229626        0.999281
  H           32.997660       28.500748        2.145433
  H           30.100329       29.311246        2.726694
  H           31.549951       30.022826        3.454943
  H           30.294056       28.059666        4.787208
  H           32.076178       27.970890        4.640372
  O           15.451578        6.855217       21.763724
  S           14.899290        6.912332       20.430938
  O           15.322942        6.001363       19.385302
  C           13.121547        6.868947       20.552374
  C           12.640939        8.086315       19.766924
  C           13.653611        9.197575       20.045126
  C           15.018272        8.583371       19.820060
  H           12.738458        5.928998       20.144648
  H           12.849422        6.955625       21.607189
  H           11.628382        8.379653       20.063879
  H           12.627289        7.860762       18.693500
  H           13.552786        9.526754       21.092922
  H           13.492102       10.067621       19.407134
  H           15.816818        9.112148       20.349983
  H           15.254243        8.531759       18.752467
  O            7.770836       11.138045        4.565612
  S            6.570044       11.820601        4.145118
  O            5.945034       11.554528        2.863998
  C            5.346923       11.659026        5.431534
  C            4.901140       13.086783        5.735980
  C            6.154816       13.955163        5.626379
  C            6.808071       13.579733        4.313934
  H            4.522452       11.026086        5.090747
  H            5.826639       11.208052        6.303713
  H            4.445083       13.160236        6.729014
  H            4.159681       13.415561        4.997439
  H            6.830555       13.725065        6.467112
  H            5.920521       15.019691        5.670945
  H            7.877924       13.809682        4.288681
  H            6.305456       14.066203        3.472016
  O           29.013431       28.803888       40.648694
  S           27.779021       28.230337       40.167165
  O           26.484915       28.724211       40.596207
  C           27.826115       28.199342       38.385642
  C           27.527432       26.751251       38.006538
  C           28.221342       25.885500       39.058567
  C           27.825601       26.463073       40.400207
  H           27.092113       28.899693       37.976681
  H           28.831387       28.484651       38.065915
  H           27.882532       26.520862       36.996427
  H           26.445994       26.569670       38.035165
  H           29.313641       25.954028       38.922232
  H           27.941704       24.834512       38.972970
  H           28.534496       26.216235       41.196849
  H           26.820257       26.138185       40.686268
  O           12.872374       11.342176       12.363028
  S           12.966073       10.047535       12.995267
  O           14.218740        9.321434       13.074645
  C           12.257774       10.161643       14.626920
  C           11.216058        9.047504       14.685441
  C           10.574581        8.993182       13.298590
  C           11.720427        8.971029       12.310285
  H           13.037477       10.046810       15.385456
  H           11.783903       11.141414       14.725384
  H           10.472209        9.236088       15.466865
  H           11.701814        8.088639       14.904344
  H            9.959352        9.895987       13.147466
  H            9.924049        8.125212       13.182248
  H           11.433285        9.327571       11.316038
  H           12.152646        7.968388       12.232848
  O           23.392528       19.135787       19.259481
  S           23.875422       17.983890       19.983736
  O           25.121414       17.327484       19.638285
  C           23.888058       18.373107       21.723089
  C           23.088011       17.254453       22.385237
  C           21.945706       16.923674       21.424235
  C           22.582631       16.758186       20.061466
  H           24.917080       18.426484       22.090192
  H           23.393207       19.337708       21.860447
  H           22.712911       17.558793       23.368180
  H           23.721087       16.369329       22.523337
  H           21.229038       17.761875       21.409870
  H           21.402174       16.027736       21.727498
  H           21.877612       16.915334       19.239059
  H           23.050794       15.773597       19.963960
  O           29.826003       33.393462       20.009582
  S           31.130653       33.386612       19.391162
  O           31.934503       32.182524       19.309326
  C           30.989903       34.101332       17.764397
  C           32.037253       35.211096       17.727241
  C           32.036514       35.841971       19.120007
  C           32.119742       34.690733       20.098742
  H           31.161387       33.337311       17.000613
  H           29.983515       34.513962       17.658950
  H           31.810866       35.948848       16.950085
  H           33.026913       34.788209       17.515016
  H           31.095427       36.398196       19.266188
  H           32.860796       36.544353       19.251611
  H           31.735331       34.945915       21.091319
  H           33.146574       34.321292       20.183774
  O           33.378934       23.846126        3.179925
  S           34.742113       23.902692        3.652305
  O           35.869009       23.650472        2.775270
  C           34.989965       25.461143        4.481040
  C           35.542296       25.095205        5.856147
  C           34.812151       23.820848        6.281239
  C           34.901409       22.876630        5.101967
  H           35.677460       26.088690        3.906553
  H           34.020513       25.957254        4.571800
  H           35.391176       25.906126        6.576611
  H           36.619247       24.897716        5.789242
  H           33.757623       24.061333        6.496969
  H           35.243627       23.383225        7.182579
  H           34.113144       22.117197        5.102824
  H           35.881839       22.391697        5.060750
  O           38.966991       34.159952       28.453507
  S           39.127134       33.441182       29.695410
  O           39.380273       34.123590       30.949579
  C           37.734015       32.348482       29.900901
  C           38.343751       30.969148       30.136612
  C           39.575420       30.889879       29.234111
  C           40.353298       32.164855       29.478125
  H           37.113853       32.681345       30.738218
  H           37.150601       32.362032       28.976972
  H           37.627405       30.171580       29.912481
  H           38.648400       30.866096       31.185359
  H           39.251311       30.837677       28.181197
  H           40.177451       30.003759       29.440143
  H           41.013567       32.427783       28.645650
  H           40.933709       32.099460       30.403839
  O           40.939343       33.065369        6.564169
  S           39.565056       32.909101        6.978314
  O           39.197492       32.746099        8.371521
  C           38.607891       34.239723        6.278113
  C           37.458376       33.556336        5.542247
  C           38.046043       32.288616        4.921496
  C           38.813768       31.599905        6.028959
  H           38.259597       34.910522        7.068821
  H           39.245006       34.787227        5.579168
  H           37.023355       34.213582        4.781796
  H           36.665376       33.286168        6.250386
  H           38.729270       32.568556        4.102206
  H           37.273637       31.641897        4.502875
  H           39.590396       30.925666        5.654326
  H           38.137867       31.052298        6.693327
  O           38.252842       22.723495       11.660387
  S           38.381345       22.599944       13.093155
  O           38.949046       21.418549       13.713414
  C           39.225755       24.042350       13.712377
  C           38.315754       24.595151       14.806090
  C           36.883856       24.387516       14.311767
  C           36.806208       22.947357       13.853385
  H           40.215078       23.767419       14.089411
  H           39.325394       24.757678       12.892269
  H           38.524891       25.651799       15.004221
  H           38.467498       24.038927       15.739304
  H           36.689864       25.067141       13.465081
  H           36.147685       24.604876       15.086948
  H           36.003011       22.772345       13.130650
  H           36.690900       22.269939       14.705387
  O           31.949427       13.551567       17.479443
  S           31.318366       14.722104       16.917122
  O           31.074941       14.853277       15.493662
  C           29.796720       15.022127       17.795517
  C           29.886418       16.473665       18.259083
  C           31.347544       16.706339       18.644796
  C           32.172057       16.178811       17.490634
  H           28.940504       14.844021       17.138500
  H           29.757122       14.343371       18.651042
  H           29.211528       16.667536       19.099581
  H           29.609831       17.148610       17.439785
  H           31.574819       16.141151       19.564203
  H           31.556108       17.758757       18.842328
  H           33.193757       15.915068       17.781613
  H           32.196592       16.897197       16.665152
  O           18.486351       39.421389       16.152030
  S           17.475649       38.931145       15.244979
  O           16.616763       37.813390       15.585038
  C           16.463047       40.304521       14.729737
  C           16.485330       40.262781       13.204069
  C           17.900782       39.837934       12.811896
  C           18.218823       38.621371       13.653931
  H           15.453091       40.202263       15.137207
  H           16.922326       41.224624       15.099430
  H           16.222006       41.234765       12.773479
  H           15.763645       39.522780       12.836825
  H           18.603047       40.655851       13.044783
  H           17.983105       39.623685       11.745397
  H           19.293949       38.456576       13.776589
  H           17.752289       37.722980       13.237591
  O           37.493771       25.205327        8.467353
  S           36.906172       25.846383        9.619905
  O           37.666374       26.097133       10.829003
  C           36.138100       27.365880        9.092466
  C           34.702912       27.283302        9.605609
  C           34.280560       25.821940        9.451204
  C           35.398403       24.999366       10.054526
  H           36.680355       28.223937        9.500141
  H           36.158430       27.397253        8.000311
  H           34.040272       27.955567        9.050210
  H           34.664347       27.567915       10.664291
  H           34.171249       25.586878        8.379198
  H           33.323766       25.619175        9.934457
  H           35.429090       23.974691        9.670860
  H           35.328377       24.983171       11.146741
  O            9.007336       22.599479       36.415975
  S            9.046897       23.553030       37.499384
  O            8.619121       23.207768       38.841212
  C           10.683034       24.256075       37.575426
  C           10.467770       25.766517       37.529305
  C            9.303102       25.999883       36.566555
  C            8.210268       25.045027       36.995698
  H           11.190469       23.932634       38.488879
  H           11.241205       23.916802       36.699332
  H           11.372631       26.289672       37.202142
  H           10.202170       26.139847       38.525990
  H            9.629300       25.767517       35.538936
  H            8.962277       27.036106       36.580024
  H            7.503575       24.816282       36.191733
  H            7.668967       25.432889       37.864408
  O           18.059027       32.178031       16.933976
  S           16.973345       32.377729       16.003377
  O           17.200614       32.517830       14.578098
  C           15.754591       31.105515       16.273763
  C           14.440548       31.853601       16.482471
  C           14.790706       33.113105       17.275465
  C           15.968265       33.740773       16.561612
  H           15.719638       30.428159       15.415586
  H           16.033120       30.552013       17.173906
  H           13.707637       31.234816       17.011097
  H           14.009858       32.136046       15.513951
  H           15.076051       32.828250       18.302030
  H           13.946872       33.801050       17.344578
  H           16.561675       34.393360       17.209760
  H           15.640423       34.296848       15.677643
  O           28.507728       22.605643       38.739091
  S           29.943214       22.511824       38.862287
  O           30.790944       23.688250       38.870937
  C           30.325036       21.511669       40.287384
  C           31.261053       20.423373       39.768362
  C           30.753079       20.056574       38.373650
  C           30.561010       21.367450       37.642272
  H           30.786859       22.125445       41.066164
  H           29.393569       21.077489       40.658943
  H           31.272588       19.554432       40.434927
  H           32.285287       20.809660       39.697470
  H           29.789676       19.527608       38.465574
  H           31.444348       19.397501       37.846516
  H           29.849055       21.293675       36.814155
  H           31.516272       21.755636       37.275004
  O           12.993915       17.025224       28.347533
  S           12.047073       16.116993       27.744866
  O           10.781848       16.575091       27.204449
  C           12.893852       15.157286       26.504331
  C           12.602594       13.702226       26.861918
  C           12.615057       13.629987       28.389146
  C           11.737174       14.766278       28.867022
  H           12.530934       15.424785       25.507719
  H           13.963259       15.368910       26.580390
  H           13.342174       13.026019       26.420029
  H           11.612842       13.413115       26.487612
  H           13.647643       13.769078       28.750834
  H           12.262214       12.665150       28.756150
  H           11.964680       15.079750       29.890778
  H           10.677519       14.503722       28.787688
  O            3.660423       31.572455       11.098306
  S            3.922889       32.983749       11.253091
  O            5.201791       33.479067       11.724017
  C            3.508278       33.807407        9.727743
  C            2.545061       34.921713       10.128286
  C            1.672728       34.347423       11.244989
  C            2.626599       33.715078       12.235176
  H            4.413700       34.188691        9.246771
  H            3.014913       33.084833        9.073008
  H            1.942492       35.254872        9.276573
  H            3.105000       35.786079       10.505960
  H            0.999957       33.582093       10.823032
  H            1.052175       35.112310       11.713992
  H            2.153028       32.944057       12.851095
  H            3.083750       34.473235       12.878846
  O           40.897570       28.669433       31.034973
  S           39.720383       28.059446       31.606590
  O           38.607730       28.849901       32.096370
  C           39.104831       26.837099       30.464678
  C           38.993304       25.552463       31.281485
  C           40.192677       25.547183       32.229787
  C           40.215584       26.913558       32.879938
  H           38.143351       27.156499       30.052319
  H           39.835612       26.723138       29.660208
  H           38.985381       24.667599       30.636153
  H           38.063560       25.555633       31.863606
  H           41.115487       25.387643       31.647234
  H           40.125589       24.748732       32.970108
  H           41.205016       27.189672       33.257941
  H           39.480381       26.975904       33.688449
  O           35.765242       24.192277       23.071092
  S           34.968787       23.585064       24.111069
  O           35.209340       23.851659       25.515975
  C           33.248086       23.879776       23.751437
  C           32.596336       22.499719       23.775209
  C           33.614793       21.538901       23.160902
  C           34.927118       21.820131       23.860124
  H           32.818625       24.559053       24.493491
  H           33.178972       24.324375       22.755569
  H           31.651406       22.494065       23.221516
  H           32.384965       22.200631       24.809215
  H           33.706306       21.747955       22.081864
  H           33.313058       20.496484       23.272359
  H           35.798003       21.511986       23.273007
  H           34.957431       21.342867       24.844705
  O           19.751280       21.901021        5.991235
  S           19.126285       22.800553        5.050584
  O           19.456721       22.785076        3.638750
  C           17.357948       22.672010        5.233514
  C           16.877235       24.103970        5.453295
  C           17.943270       24.781900        6.314561
  C           19.270002       24.471640        5.655986
  H           16.918816       22.214516        4.342244
  H           17.149700       22.053962        6.110355
  H           15.894416       24.126276        5.936069
  H           16.794322       24.625336        4.491732
  H           17.914216       24.355082        7.331116
  H           17.776901       25.856571        6.401182
  H           20.115893       24.540361        6.347250
  H           19.442705       25.124359        4.794458
  O           34.273221       41.197584       33.730745
  S           34.087500       39.922931       33.078543
  O           35.135691       38.921734       33.038537
  C           32.596580       39.176450       33.708561
  C           31.765429       38.846429       32.471559
  C           31.991918       39.995958       31.489172
  C           33.490395       40.196149       31.420678
  H           32.839833       38.288555       34.299299
  H           32.085195       39.911689       34.334747
  H           30.705157       38.731920       32.720981
  H           32.111829       37.906425       32.024681
  H           31.503911       40.906052       31.876444
  H           31.567392       39.784430       30.506760
  H           33.771956       41.200814       31.089813
  H           33.956956       39.448773       30.771178
  O           14.303994       17.197046       35.969768
  S           13.079426       16.699141       36.550391
  O           12.232447       15.748478       35.856441
  C           13.439030       16.073330       38.180129
  C           12.457996       16.789188       39.104802
  C           12.330937       18.214723       38.566743
  C           12.080910       18.078159       37.080460
  H           13.318590       14.986351       38.201831
  H           14.469769       16.338775       38.427752
  H           12.807007       16.779430       40.142875
  H           11.479510       16.294449       39.071640
  H           13.275231       18.755808       38.745450
  H           11.532215       18.769225       39.061385
  H           12.361827       18.973235       36.516522
  H           11.034311       17.828199       36.879835
  O           13.492961       41.106642       15.558910
  S           12.652077       39.938959       15.677362
  O           11.438564       39.944821       16.471119
  C           12.270799       39.347308       14.039811
  C           12.673152       37.874907       14.046857
  C           13.945103       37.786697       14.890752
  C           13.651897       38.545878       16.166634
  H           11.207831       39.490407       13.825052
  H           12.874432       39.911034       13.324241
  H           12.836330       37.500007       13.030824
  H           11.882479       37.270467       14.508146
  H           14.776222       38.265075       14.345963
  H           14.231732       36.753585       15.092306
  H           14.556956       38.901754       16.668949
  H           13.060224       37.937695       16.858108
  O           15.311698       13.581634       27.227602
  S           15.724306       12.645814       26.208487
  O           15.396912       12.841440       24.809472
  C           17.480158       12.380028       26.361273
  C           17.644362       10.865852       26.462292
  C           16.462760       10.365490       27.293710
  C           15.229541       11.001677       26.689859
  H           18.002039       12.801590       25.497314
  H           17.820832       12.869181       27.277172
  H           18.602313       10.597091       26.920111
  H           17.608316       10.415446       25.462725
  H           16.588240       10.695670       28.338524
  H           16.395663        9.276640       27.295754
  H           14.392453       11.061008       27.392614
  H           14.916249       10.469990       25.785836
  O           26.431887       16.831107       22.089310
  S           27.216470       16.494282       23.253603
  O           28.511435       15.850694       23.146084
  C           27.375172       17.949935       24.269915
  C           26.897304       17.520476       25.654511
  C           25.727470       16.563857       25.421768
  C           26.205455       15.564507       24.390735
  H           28.412722       18.296316       24.273287
  H           26.724911       18.725858       23.858450
  H           26.598822       18.382957       26.259933
  H           27.701778       16.996283       26.184929
  H           24.866500       17.131488       25.030711
  H           25.410406       16.073249       26.343112
  H           25.384438       15.087234       23.846455
  H           26.838691       14.798985       24.850178
  O           19.160403       17.200392        2.347906
  S           18.907234       18.046584        3.490038
  O           17.649479       18.006686        4.210566
  C           20.246191       17.848062        4.649685
  C           20.747808       19.263764        4.921841
  C           20.656362       20.009595        3.590236
  C           19.266952       19.738149        3.055395
  H           19.890019       17.348202        5.555103
  H           21.023711       17.245853        4.173232
  H           21.771457       19.257444        5.311204
  H           20.106106       19.754734        5.663775
  H           21.415512       19.609795        2.897234
  H           20.842936       21.078189        3.705983
  H           19.195877       19.861561        1.970122
  H           18.525190       20.373891        3.549076
  O           22.588493       36.256507       30.192121
  S           22.971158       35.119865       30.995995
  O           23.990871       35.214754       32.022582
  C           21.499536       34.406542       31.704868
  C           21.547077       32.931426       31.315415
  C           22.120342       32.884912       29.898728
  C           23.361708       33.750138       29.923141
  H           21.493307       34.553986       32.788713
  H           20.632343       34.898244       31.257202
  H           20.553718       32.472747       31.363892
  H           22.207393       32.382598       31.998109
  H           21.380817       33.300559       29.193930
  H           22.344673       31.865611       29.581236
  H           23.639111       34.126346       28.933386
  H           24.206656       33.211947       30.364178
  O           16.123565       28.053196       23.287962
  S           17.517750       28.416807       23.380879
  O           18.459950       28.121645       22.318881
  C           17.625285       30.149159       23.786336
  C           18.517597       30.211944       25.023161
  C           18.158675       28.989004       25.867786
  C           18.179052       27.808494       24.921117
  H           18.038507       30.709113       22.942417
  H           16.619153       30.509089       24.015135
  H           18.366782       31.143943       25.578258
  H           19.573148       30.159619       24.729266
  H           17.147738       29.122043       26.288151
  H           18.848816       28.850333       26.701198
  H           17.573501       26.967855       25.274296
  H           19.204013       27.472926       24.734173
  O            1.818338        4.541189       24.732454
  S            3.080171        4.452569       24.036376
  O            4.034610        5.544240       24.036373
  C            3.906986        2.959682       24.550833
  C            4.235669        2.222270       23.255421
  C            3.049488        2.458545       22.320035
  C            2.784272        3.948125       22.351835
  H            4.800634        3.204599       25.132132
  H            3.212545        2.378558       25.162589
  H            4.402074        1.154620       23.434122
  H            5.146795        2.636759       22.806701
  H            2.172480        1.907877       22.699537
  H            3.250070        2.105557       21.307480
  H            1.759405        4.205228       22.066097
  H            3.492049        4.486537       21.713661
  O           12.549698       22.754612       26.691148
  S           13.587238       21.887535       26.184901
  O           14.498022       22.310691       25.138902
  C           14.534041       21.272402       27.564095
  C           14.520806       19.754059       27.408024
  C           13.129557       19.393283       26.886425
  C           12.867342       20.323276       25.721712
  H           15.545904       21.687303       27.541969
  H           14.028770       21.572121       28.485545
  H           14.738407       19.252530       28.357033
  H           15.279379       19.443617       26.678988
  H           12.387199       19.563957       27.684031
  H           13.062660       18.345623       26.589721
  H           11.800976       20.456857       25.514060
  H           13.379015       19.975430       24.818775
  O           14.240841       27.255731       22.323011
  S           14.616845       26.491769       21.157000
  O           14.675464       27.086981       19.836020
  C           16.163202       25.671150       21.492208
  C           15.903823       24.197870       21.188784
  C           14.477079       23.912699       21.658760
  C           13.619065       25.015978       21.078424
  H           16.957212       26.093877       20.869834
  H           16.402823       25.813298       22.548890
  H           16.631041       23.551812       21.692037
  H           15.979248       24.016505       20.109563
  H           14.444425       23.945221       22.760702
  H           14.132534       22.926095       21.345708
  H           12.689454       25.171086       21.635078
  H           13.391509       24.823408       20.025221
  O            6.665271       22.372351       23.421353
  S            7.418481       23.600452       23.516449
  O            7.411595       24.588722       22.455330
  C            7.006603       24.399548       25.055540
  C            8.346277       24.649831       25.742948
  C            9.218174       23.433785       25.428576
  C            9.109265       23.218249       23.934627
  H            6.454245       25.324155       24.864483
  H            6.391624       23.712948       25.642551
  H            8.222204       24.789090       26.822167
  H            8.815249       25.554265       25.336299
  H            8.825769       22.556139       25.969091
  H           10.253037       23.580361       25.741105
  H            9.338808       22.191140       23.633867
  H            9.753070       23.915685       23.389469
  O           30.499166       24.346784       36.792244
  S           31.019244       24.441617       35.448695
  O           32.159669       23.660448       35.010623
  C           29.675626       24.198661       34.302979
  C           29.720041       25.411537       33.377311
  C           30.106283       26.601828       34.255845
  C           31.311720       26.155970       35.054803
  H           29.804995       23.255367       33.764500
  H           28.742329       24.178150       34.871077
  H           28.756678       25.571831       32.881593
  H           30.480585       25.265002       32.600523
  H           29.268684       26.840683       34.932437
  H           30.320478       27.493830       33.665461
  H           31.446341       26.727287       35.978694
  H           32.223616       26.208300       34.451639
  O           23.512476       28.133877       24.692037
  S           23.770442       26.713950       24.648894
  O           23.825620       25.981930       23.398373
  C           25.251312       26.378885       25.582573
  C           24.850774       25.302422       26.587907
  C           23.425495       25.640480       27.026198
  C           22.644254       25.881484       25.752707
  H           26.052568       26.050867       24.914073
  H           25.546724       27.297732       26.095068
  H           25.538834       25.274642       27.439554
  H           24.864507       24.315688       26.108881
  H           23.442188       26.555861       27.641177
  H           22.982617       24.845100       27.627305
  H           21.756126       26.502146       25.907969
  H           22.356559       24.935252       25.283692
  O            9.648039       38.736931       25.556989
  S           10.020368       38.574848       26.942521
  O            9.255766       37.741316       27.849885
  C           11.734172       38.090523       27.015345
  C           12.391335       39.098948       27.954023
  C           11.724970       40.444399       27.665023
  C           10.234445       40.183175       27.682220
  H           11.820429       37.062163       27.378025
  H           12.153326       38.166841       26.009022
  H           13.474497       39.143508       27.798220
  H           12.210582       38.815170       28.998101
  H           12.037703       40.797818       26.668182
  H           12.009818       41.206665       28.391599
  H            9.664420       40.926606       27.116108
  H            9.856938       40.130837       28.708304
  O            5.803685       18.431065       23.072061
  S            4.587453       17.763667       22.672110
  O            4.342397       16.367514       22.977731
  C            3.199763       18.731938       23.232260
  C            2.347698       18.960723       21.986650
  C            3.329607       19.161769       20.831991
  C            4.323804       18.024862       20.927987
  H            2.658700       18.196432       24.017742
  H            3.579959       19.679573       23.621669
  H            1.685536       19.824597       22.108153
  H            1.723503       18.080327       21.790226
  H            3.844564       20.128967       20.957476
  H            2.825964       19.177246       19.864415
  H            5.278268       18.250539       20.442014
  H            3.906411       17.102296       20.512349
  O           32.525485       15.618106       30.076002
  S           32.251482       16.958520       29.614685
  O           33.169980       18.054848       29.853698
  C           31.868954       16.891513       27.875092
  C           30.524021       17.600137       27.737584
  C           29.712241       17.213262       28.974168
  C           30.624268       17.443061       30.159748
  H           32.659780       17.377074       27.296020
  H           31.785728       15.841418       27.584277
  H           30.012728       17.311832       26.812944
  H           30.671010       18.687032       27.718754
  H           29.435494       16.147689       28.908098
  H           28.790414       17.790903       29.055808
  H           30.340176       16.853566       31.037180
  H           30.663954       18.504390       30.424524
  O           31.828142       29.220188        9.062644
  S           30.729836       29.101657        8.132981
  O           30.694161       29.845701        6.888864
  C           30.468491       27.373652        7.782702
  C           28.990164       27.129511        8.073984
  C           28.652085       27.982951        9.296744
  C           29.196065       29.364410        9.003733
  H           30.732762       27.155177        6.743987
  H           31.098594       26.789561        8.457986
  H           28.787978       26.068331        8.254312
  H           28.380020       27.450475        7.220751
  H           29.149975       27.558565       10.184665
  H           27.579861       28.005123        9.496604
  H           29.383491       29.950075        9.909253
  H           28.525620       29.917219        8.338146
  O            3.740840        3.004576        1.355606
  S            3.155485        3.630781        2.517427
  O            2.647733        2.855587        3.632758
  C            4.293364        4.856522        3.133699
  C            3.479803        6.145250        3.218541
  C            2.547934        6.139284        2.006360
  C            1.893179        4.775004        1.991086
  H            4.691435        4.547372        4.104506
  H            5.108113        4.958811        2.412644
  H            4.128189        7.027894        3.224583
  H            2.885078        6.155382        4.140223
  H            3.143567        6.285593        1.089727
  H            1.809685        6.941062        2.053687
  H            1.527670        4.488227        0.999994
  H            1.074518        4.724393        2.715884
  O           17.207611       11.828848       23.691039
  S           17.049390       10.900773       22.596396
  O           16.232969       11.211625       21.439016
  C           18.666983       10.393913       22.045500
  C           18.637568        8.868208       22.080966
  C           17.816407        8.488230       23.313488
  C           16.550925        9.315052       23.241935
  H           18.864348       10.786233       21.043686
  H           19.405257       10.784213       22.750353
  H           19.648665        8.449598       22.125111
  H           18.149085        8.479716       21.178880
  H           18.386557        8.743369       24.222462
  H           17.599316        7.419662       23.347160
  H           16.073287        9.449385       24.217597
  H           15.836057        8.878363       22.537402
  O           33.534596        2.855579       29.369731
  S           32.150857        3.243008       29.510321
  O           31.514366        3.357599       30.808183
  C           31.890878        4.754246       28.601712
  C           30.715758        4.460877       27.672772
  C           30.889953        3.013275       27.212443
  C           31.144363        2.205223       28.466447
  H           31.684781        5.578133       29.291085
  H           32.795844        4.966929       28.027253
  H           30.693422        5.153869       26.824973
  H           29.769615        4.562483       28.218473
  H           31.758721        2.949387       26.536011
  H           30.017807        2.649326       26.667463
  H           31.668265        1.264669       28.268998
  H           30.209931        2.003018       28.999410
  O            2.352461       22.981588       32.724575
  S            2.577483       22.321348       31.460435
  O            2.006783       22.817914       30.223332
  C            4.332551       22.100363       31.241576
  C            4.512095       20.611286       30.958180
  C            3.496974       19.885798       31.841920
  C            2.176100       20.591728       31.624771
  H            4.692663       22.729421       30.422366
  H            4.830500       22.380830       32.173018
  H            5.536136       20.284753       31.168458
  H            4.299067       20.400202       29.903020
  H            3.806051       19.973292       32.897011
  H            3.431311       18.823495       31.602547
  H            1.477157       20.454252       32.455842
  H            1.707208       20.268306       30.690084
  O           34.916667       18.284864       11.581618
  S           33.607771       18.821085       11.871205
  O           32.794285       18.313496       12.958998
  C           33.742711       20.591669       12.025556
  C           32.703559       21.153960       11.059174
  C           32.718673       20.234371        9.837729
  C           32.633481       18.823224       10.377735
  H           33.560188       20.895062       13.060514
  H           34.751443       20.884520       11.724062
  H           32.930162       22.190269       10.786749
  H           31.709288       21.134985       11.522169
  H           33.664928       20.375128        9.288923
  H           31.900658       20.453744        9.150105
  H           33.026645       18.075553        9.681668
  H           31.604493       18.568950       10.650917
  O           17.691634       32.831481       10.917818
  S           16.937284       34.032476       10.647323
  O           15.590252       34.221780       11.149687
  C           17.930101       35.440007       11.105766
  C           17.956511       36.327504        9.864173
  C           18.025609       35.379584        8.666478
  C           16.944849       34.344479        8.891676
  H           17.492410       35.944172       11.972221
  H           18.934150       35.084325       11.349848
  H           18.807704       37.016428        9.883018
  H           17.038218       36.924947        9.808500
  H           19.016521       34.895914        8.642891
  H           17.890503       35.905237        7.720150
  H           17.130514       33.409700        8.353328
  H           15.960797       34.738793        8.619174
  O           21.995666        9.881120       15.577467
  S           22.001825        9.134664       14.341601
  O           20.805737        8.970936       13.538317
  C           23.312672        9.760512       13.308646
  C           24.142146        8.534847       12.934993
  C           24.161984        7.641639       14.175793
  C           22.723248        7.529937       14.631602
  H           22.894481       10.266354       12.433580
  H           23.904889       10.464745       13.898168
  H           25.153966        8.816229       12.624275
  H           23.668902        7.999001       12.103002
  H           24.772879        8.121338       14.958798
  H           24.597166        6.662958       13.968670
  H           22.630195        7.271474       15.691148
  H           22.174396        6.803285       14.024281
  O           28.901920        7.280100       36.698832
  S           28.781711        6.390869       35.567719
  O           27.492909        6.026623       35.011829
  C           29.827822        6.996399       34.257763
  C           30.709408        5.810699       33.874589
  C           31.030830        5.081764       35.179634
  C           29.708368        4.902559       35.893203
  H           29.218164        7.352748       33.422399
  H           30.431419        7.816387       34.654614
  H           31.619458        6.138456       33.360893
  H           30.164080        5.137718       33.201526
  H           31.708918        5.705155       35.786248
  H           31.527308        4.126504       35.003318
  H           29.821227        4.769104       36.973737
  H           29.146706        4.061980       35.473604
  O            5.472429       34.392834       36.534281
  S            4.167656       33.923015       36.132489
  O            2.983975       34.752353       36.249950
  C            4.277868       33.302899       34.465063
  C            3.708219       31.888266       34.529986
  C            4.170953       31.305442       35.865648
  C            3.847268       32.350972       36.910777
  H            3.717103       33.949807       33.784216
  H            5.331871       33.283878       34.177109
  H            4.049121       31.280648       33.684950
  H            2.612120       31.921863       34.502796
  H            5.259113       31.129753       35.827670
  H            3.688511       30.351966       36.085265
  H            4.459700       32.256251       37.813027
  H            2.786536       32.322258       37.179335
  O           18.157190       33.349382       22.979560
  S           17.123627       33.613518       22.006638
  O           15.724224       33.354324       22.284470
  C           17.299837       35.292572       21.435035
  C           17.368236       35.188094       19.913750
  C           18.167643       33.920367       19.611064
  C           17.558042       32.829764       20.464979
  H           16.454906       35.897763       21.776114
  H           18.232538       35.694263       21.838659
  H           17.835790       36.074803       19.472570
  H           16.357958       35.094787       19.496699
  H           19.221854       34.079815       19.893226
  H           18.143127       33.664400       18.550885
  H           18.247733       32.001462       20.655616
  H           16.636682       32.447366       20.014460
  O           15.044870       25.849425       17.975914
  S           16.125373       25.860815       17.018321
  O           15.953691       26.376830       15.674091
  C           17.536909       26.651038       17.766729
  C           18.681606       25.654581       17.603505
  C           18.068207       24.267862       17.799857
  C           16.837065       24.228743       16.920676
  H           17.739415       27.606518       17.274235
  H           17.314520       26.816725       18.823748
  H           19.484399       25.846204       18.323438
  H           19.105931       25.730121       16.594772
  H           17.783945       24.143084       18.858169
  H           18.769420       23.470829       17.548585
  H           16.101824       23.487228       17.248815
  H           17.106555       24.044815       15.875857
  O           32.021243       12.909926       27.633454
  S           30.812429       13.471302       28.188636
  O           30.842954       14.486525       29.223571
  C           29.784926       14.040742       26.848122
  C           28.432792       13.368905       27.072328
  C           28.738136       11.965105       27.595693
  C           29.740741       12.146718       28.714622
  H           29.717983       15.132454       26.861661
  H           30.233126       13.706787       25.909085
  H           27.844487       13.336127       26.149115
  H           27.855933       13.924115       27.822177
  H           29.179205       11.362857       26.783809
  H           27.838824       11.451557       27.938630
  H           30.334814       11.247385       28.905349
  H           29.245656       12.465266       29.637399
  O            5.606748       34.996594       39.644473
  S            4.801781       36.011547       39.006899
  O            4.264849       35.837888       37.671143
  C            3.475964       36.459039       40.110965
  C            3.567070       37.976827       40.244825
  C            5.058604       38.312982       40.256033
  C            5.661356       37.572047       39.082191
  H            2.516479       36.131227       39.700565
  H            3.654782       35.973253       41.073376
  H            3.067358       38.328906       41.153576
  H            3.087021       38.460368       39.385150
  H            5.504039       37.956713       41.199993
  H            5.236553       39.387261       40.190000
  H            6.735474       37.394585       39.195677
  H            5.471472       38.102565       38.143792
  O           13.169528       31.383520       26.466028
  S           14.498017       31.288600       25.908617
  O           15.068525       30.020544       25.497214
  C           14.631095       32.448371       24.561687
  C           15.865448       33.287329       24.881721
  C           15.863384       33.483857       26.398023
  C           15.648092       32.110321       26.995724
  H           14.722149       31.914122       23.611535
  H           13.731398       33.068617       24.555386
  H           15.846749       34.245063       24.350784
  H           16.773867       32.750942       24.581115
  H           15.032866       34.154136       26.676171
  H           16.789440       33.938206       26.753110
  H           15.234745       32.145782       28.008634
  H           16.577550       31.532213       26.995812
  O           15.849014       20.478431       30.023580
  S           15.522465       19.687683       31.186629
  O           15.809935       20.146706       32.531753
  C           13.805645       19.218718       31.088646
  C           13.800324       17.700126       31.242758
  C           15.037900       17.194073       30.501059
  C           16.190837       18.046933       30.984347
  H           13.231932       19.721652       31.872490
  H           13.427922       19.510237       30.105518
  H           12.881265       17.260535       30.840776
  H           13.870000       17.428807       32.303338
  H           14.892299       17.330655       29.416372
  H           15.217339       16.133101       30.680617
  H           17.026210       18.075210       30.277628
  H           16.545879       17.708878       31.963001
  O           30.026047        4.496612       15.101932
  S           29.484696        3.490768       15.985005
  O           30.082169        2.175154       16.107011
  C           29.308050        4.200238       17.610566
  C           27.852884        3.948634       17.996683
  C           27.037500        4.123974       16.715197
  C           27.742016        3.302222       15.657568
  H           30.012726        3.733082       18.304610
  H           29.510783        5.271679       17.539056
  H           27.522791        4.636764       18.782185
  H           27.734192        2.924560       18.371497
  H           27.034420        5.189274       16.429670
  H           26.000084        3.812196       16.844286
  H           27.521239        3.637700       14.639328
  H           27.497189        2.240121       15.758075
  O            6.825997       14.790980       26.379010
  S            6.701568       13.440680       26.874801
  O            7.324453       13.018095       28.114211
  C            4.972320       13.010869       26.919090
  C            4.867625       11.707835       26.131028
  C            5.856297       11.832733       24.971404
  C            7.159312       12.299379       25.583445
  H            4.636965       12.902622       27.954618
  H            4.409889       13.808168       26.426966
  H            3.846404       11.537358       25.773892
  H            5.150440       10.859509       26.766370
  H            5.482465       12.583079       24.254723
  H            5.977065       10.891461       24.433331
  H            7.812903       12.802153       24.863628
  H            7.694613       11.466164       26.049606
  O           28.021523       34.819359        4.526061
  S           28.353357       35.467346        5.772896
  O           29.241121       34.855838        6.742758
  C           28.929789       37.116259        5.418193
  C           28.065297       38.032241        6.280475
  C           26.663954       37.420670        6.276228
  C           26.848887       35.953435        6.597508
  H           29.994769       37.202108        5.652606
  H           28.765155       37.314141        4.356149
  H           28.059400       39.056987        5.894004
  H           28.452203       38.059309        7.306570
  H           26.219849       37.537421        5.273462
  H           26.001512       37.910344        6.991413
  H           26.019691       35.331729        6.245347
  H           26.994015       35.802125        7.671819
  O           19.921143       40.942413        5.152393
  S           20.674720       39.722010        5.317735
  O           20.423609       38.549009        4.503049
  C           22.411799       40.115298        5.247859
  C           23.004074       39.521558        6.523234
  C           21.955632       39.732307        7.616008
  C           20.645559       39.245269        7.035747
  H           22.857917       39.693472        4.342573
  H           22.515329       41.203161        5.241891
  H           23.956507       39.996923        6.780916
  H           23.186305       38.448112        6.389800
  H           21.890032       40.807269        7.853820
  H           22.211167       39.204146        8.535707
  H           19.771747       39.687314        7.524777
  H           20.579586       38.153476        7.077408
  O           30.700387       29.578604       38.451284
  S           30.966866       30.365840       37.270671
  O           32.243229       31.019935       37.056758
  C           30.569701       29.386342       35.835456
  C           29.607115       30.247543       35.022031
  C           28.722181       30.970160       36.038159
  C           29.664313       31.565617       37.061885
  H           31.481042       29.140052       35.282916
  H           30.079670       28.469728       36.172928
  H           29.013815       29.640003       34.330373
  H           30.166852       30.983579       34.431907
  H           28.050415       30.239527       36.519101
  H           28.100248       31.733961       35.569217
  H           29.182031       31.755637       38.025937
  H           30.118374       32.488506       36.687444
  O           15.337522       17.118729       20.146538
  S           15.867102       17.929397       19.075575
  O           16.213291       19.324270       19.268404
  C           17.260410       17.080111       18.358351
  C           16.955525       17.010095       16.864349
  C           15.449407       16.773067       16.749348
  C           14.796701       17.794063       17.655848
  H           18.184839       17.624230       18.572513
  H           17.309184       16.078116       18.791741
  H           17.527630       16.213863       16.376280
  H           17.216798       17.959817       16.381582
  H           15.215002       15.752368       17.095219
  H           15.098240       16.863448       15.720459
  H           13.793619       17.498292       17.979029
  H           14.755437       18.776462       17.174922
  O           11.170403       28.555811       25.586442
  S           11.866526       27.407406       26.116706
  O           11.318022       26.608550       27.195443
  C           12.300103       26.332959       24.762242
  C           13.802923       26.105411       24.902428
  C           14.391022       27.435046       25.375724
  C           13.533176       27.878666       26.540843
  H           11.727957       25.402519       24.820819
  H           12.071804       26.852292       23.828233
  H           14.248409       25.781443       23.955809
  H           13.998075       25.328744       25.652098
  H           14.330145       28.171096       24.556624
  H           15.440141       27.340656       25.659519
  H           13.576332       28.958319       26.715731
  H           13.807656       27.344691       27.456065
  O           18.754632        4.732142       33.173996
  S           18.458093        4.282511       34.513584
  O           19.190447        4.770176       35.666208
  C           16.712034        4.488605       34.806505
  C           16.223670        3.118766       35.270124
  C           17.004163        2.090468       34.450835
  C           18.458091        2.499618       34.545127
  H           16.544606        5.268688       35.554795
  H           16.238670        4.770243       33.862680
  H           15.142961        3.010659       35.129125
  H           16.441594        2.982155       36.336495
  H           16.665416        2.129122       33.401952
  H           16.846452        1.073596       34.813047
  H           19.063397        2.117642       33.716998
  H           18.893848        2.183311       35.498104
  O           12.828791       12.099942       33.027985
  S           13.289622       11.316121       34.149529
  O           12.999297       11.692546       35.519462
  C           12.796668        9.621952       33.896969
  C           14.082339        8.810629       34.033737
  C           15.186728        9.655266       33.397567
  C           15.044097       11.041011       33.988810
  H           12.039928        9.335576       34.633062
  H           12.387051        9.532646       32.887792
  H           13.991906        7.833024       33.548341
  H           14.311109        8.642938       35.093381
  H           15.034026        9.689975       32.305836
  H           16.177945        9.238081       33.580725
  H           15.481922       11.821138       33.358088
  H           15.481695       11.087086       34.991050
  O           13.197262       34.822444       12.642972
  S           12.572457       34.166848       13.767433
  O           13.194128       34.131040       15.076991
  C           10.909487       34.786905       13.931934
  C           10.022762       33.544536       13.943743
  C           10.650813       32.565578       12.951274
  C           12.122334       32.506077       13.299534
  H           10.815996       35.377404       14.847942
  H           10.690675       35.411483       13.062323
  H            8.990045       33.787641       13.671907
  H           10.013257       33.097937       14.945620
  H           10.517730       32.951702       11.926776
  H           10.184669       31.580352       12.997556
  H           12.746152       32.178681       12.461822
  H           12.295085       31.857905       14.164479
  O           19.851991       12.583751        3.316454
  S           18.761432       12.663094        4.259314
  O           17.581470       11.828816        4.139441
  C           19.423423       12.497786        5.905959
  C           18.902367       13.714365        6.666443
  C           18.922577       14.876387        5.672916
  C           18.248972       14.363606        4.418519
  H           19.096374       11.553574        6.350935
  H           20.513944       12.519896        5.839060
  H           19.515391       13.927236        7.548705
  H           17.873865       13.535871        7.003524
  H           19.968590       15.151796        5.457494
  H           18.421209       15.761190        6.067698
  H           18.537981       14.919829        3.521196
  H           17.159683       14.374640        4.525417
  O           21.977978       17.464005       36.384241
  S           22.134480       18.360890       35.263658
  O           22.584565       17.895957       33.965983
  C           20.620637       19.278911       35.057462
  C           21.043562       20.745551       35.057279
  C           22.173149       20.861500       36.081189
  C           23.143089       19.745295       35.759472
  H           20.125191       18.985360       34.127482
  H           19.971586       19.062399       35.909551
  H           20.204374       21.403831       35.306138
  H           21.415051       21.030425       34.065239
  H           21.759871       20.725932       37.094709
  H           22.656751       21.838812       36.048189
  H           23.763895       19.459813       36.614574
  H           23.781892       20.012558       34.911768
  O           25.754156        5.956679       18.460819
  S           25.804220        7.250675       19.099308
  O           27.032330        7.784725       19.655399
  C           25.096717        8.455757       17.992866
  C           24.019037        9.161136       18.811980
  C           23.378943        8.083886       19.688114
  C           24.525458        7.340715       20.338808
  H           25.870711        9.142653       17.638453
  H           24.654914        7.923968       17.146574
  H           23.280162        9.647586       18.166278
  H           24.472757        9.931344       19.447761
  H           22.793850        7.398773       19.051965
  H           22.700636        8.508847       20.429334
  H           24.252137        6.330204       20.658595
  H           24.924842        7.902223       21.189279
  O           37.180788       32.646263       10.198232
  S           36.480882       31.645376        9.428195
  O           37.185074       30.655652        8.636198
  C           35.323336       30.814305       10.498900
  C           33.977322       30.922488        9.787251
  C           33.950750       32.306482        9.137901
  C           35.264064       32.445061        8.398847
  H           35.632449       29.776827       10.655707
  H           35.300872       31.344578       11.454151
  H           33.143994       30.788260       10.485138
  H           33.897838       30.150404        9.012094
  H           33.874187       33.075399        9.924860
  H           33.096729       32.429011        8.470267
  H           35.552009       33.487884        8.232386
  H           35.234616       31.912621        7.442950
  O            7.810016       32.873056       24.505365
  S            7.199680       32.654143       23.215339
  O            6.199684       31.625441       23.004437
  C            6.566624       34.209300       22.617237
  C            7.177344       34.377924       21.228537
  C            8.600137       33.825715       21.320863
  C            8.479150       32.472124       21.986711
  H            5.473224       34.187795       22.594563
  H            6.909643       34.998849       23.290402
  H            7.171381       35.426885       20.913665
  H            6.605016       33.799962       20.492533
  H            9.212355       34.501446       21.941327
  H            9.075322       33.753053       20.341567
  H            9.407474       32.149013       22.468286
  H            8.149133       31.711351       21.272279
  O           10.803403       23.173971       14.197688
  S           11.655949       23.756801       13.188692
  O           13.018992       23.306896       12.982783
  C           10.792649       23.723248       11.629658
  C           10.831129       25.163082       11.124389
  C           10.669162       26.050425       12.358969
  C           11.658683       25.529810       13.378777
  H           11.280397       23.024954       10.943372
  H            9.764019       23.404851       11.816055
  H           10.042759       25.349518       10.387358
  H           11.796970       25.369129       10.646898
  H            9.640040       25.953257       12.743502
  H           10.840133       27.103548       12.131369
  H           11.387973       25.789352       14.407102
  H           12.670455       25.886554       13.161634
  O           19.815523       26.676086       26.928486
  S           19.399203       25.455741       26.278842
  O           19.466928       25.291122       24.839741
  C           20.232165       24.086485       27.058786
  C           19.119233       23.121221       27.458221
  C           17.945809       23.990622       27.911010
  C           17.756890       25.031632       26.828971
  H           20.948640       23.636447       26.365512
  H           20.754538       24.463062       27.941688
  H           19.446077       22.439990       28.251062
  H           18.817433       22.516001       26.594551
  H           18.202291       24.477644       28.866743
  H           17.039614       23.404461       28.070151
  H           17.245713       25.930973       27.186715
  H           17.216247       24.614795       25.973370
  O           30.287594        7.748674        3.035680
  S           30.705759        6.503870        2.435513
  O           30.844132        6.352690        1.000000
  C           32.215098        5.974835        3.222291
  C           31.939812        4.547619        3.688308
  C           30.485251        4.528162        4.159130
  C           29.681730        5.182625        3.056300
  H           33.048580        6.031874        2.516207
  H           32.403790        6.631783        4.074942
  H           32.626485        4.248305        4.487303
  H           32.065987        3.847646        2.853193
  H           30.397427        5.111327        5.091121
  H           30.135888        3.515849        4.367139
  H           28.728621        5.590604        3.407351
  H           29.503823        4.483965        2.232696
  O           11.234153       20.640658       20.087624
  S           10.808581       21.000451       21.419554
  O           10.518131       22.372615       21.787664
  C            9.421839       19.974142       21.867477
  C            9.811741       19.341009       23.200526
  C           11.309080       19.045656       23.108096
  C           11.954231       20.318196       22.603495
  H            8.513156       20.578693       21.940361
  H            9.299735       19.209900       21.095969
  H            9.232641       18.432259       23.396267
  H            9.625169       20.044961       24.020856
  H           11.473669       18.225065       22.389806
  H           11.724968       18.734977       24.067584
  H           12.921039       20.144030       22.120744
  H           12.070755       21.046576       23.412188
  O           18.975750        9.605849       11.986036
  S           19.327517       10.998881       12.128587
  O           19.747091       11.558026       13.399026
  C           20.539724       11.406667       10.887109
  C           19.966535       12.618107       10.156515
  C           18.457819       12.385962       10.068845
  C           18.013346       12.004518       11.464246
  H           21.504481       11.618383       11.357130
  H           20.634541       10.554271       10.209886
  H           20.414913       12.735781        9.164240
  H           20.165825       13.532365       10.728980
  H           18.257823       11.559310        9.366671
  H           17.928699       13.267101        9.703162
  H           17.076751       11.438127       11.473822
  H           17.916656       12.889519       12.101054
  O            8.450518       20.570481       16.533543
  S            7.286506       21.190850       17.120756
  O            5.946111       20.696768       16.871915
  C            7.539917       21.318453       18.880444
  C            7.302966       22.790082       19.209174
  C            7.879791       23.584804       18.037214
  C            7.325072       22.941641       16.784686
  H            6.850610       20.654368       19.409923
  H            8.572277       21.033668       19.097999
  H            7.775139       23.069199       20.157143
  H            6.227535       22.988560       19.294927
  H            8.979716       23.504898       18.050662
  H            7.623434       24.643595       18.095042
  H            7.939600       23.132185       15.899164
  H            6.296972       23.267785       16.598297
  O            5.739263       27.774591        6.287760
  S            6.314534       28.240298        7.527429
  O            6.650832       27.331556        8.606221
  C            7.738568       29.243343        7.149238
  C            7.499389       30.562265        7.879402
  C            5.999935       30.841144        7.771403
  C            5.307375       29.559143        8.180099
  H            8.652304       28.740947        7.479667
  H            7.769143       29.398495        6.067946
  H            8.092939       31.373508        7.444565
  H            7.780766       30.464851        8.935166
  H            5.751446       31.091213        6.726358
  H            5.694042       31.682074        8.395396
  H            4.291354       29.477197        7.781243
  H            5.286397       29.454418        9.269453
  O            5.457285       21.633793       28.497302
  S            5.199772       20.936892       27.259313
  O            5.897530       21.269278       26.032385
  C            5.347938       19.185292       27.554177
  C            4.038619       18.586098       27.047666
  C            2.944218       19.590526       27.409896
  C            3.445210       20.939421       26.941186
  H            6.221615       18.787150       27.030086
  H            5.455754       19.028391       28.630261
  H            3.848905       17.604243       27.494286
  H            4.077919       18.461064       25.958574
  H            2.804012       19.596001       28.503840
  H            1.986694       19.334657       26.954069
  H            2.977258       21.775699       27.470108
  H            3.302424       21.057979       25.862457
  O           39.543222       37.514554       13.101647
  S           38.995173       38.016852       14.339362
  O           37.939472       39.010641       14.363476
  C           38.508638       36.629693       15.347367
  C           39.209486       36.847356       16.685774
  C           40.582254       37.434000       16.355387
  C           40.328077       38.569061       15.387280
  H           37.419601       36.597750       15.444723
  H           38.866412       35.716126       14.866126
  H           39.295445       35.912011       17.249015
  H           38.641855       37.559899       17.296820
  H           41.203194       36.658038       15.877142
  H           41.107376       37.775048       17.248714
  H           41.201842       38.810287       14.773728
  H           39.987671       39.465850       15.914529
  O           18.867614       21.629528       20.805903
  S           19.784622       21.683772       19.692012
  O           19.342273       21.493497       18.324232
  C           20.711892       23.202481       19.795429
  C           22.176714       22.776881       19.740097
  C           22.269420       21.471535       20.530842
  C           21.155832       20.589053       20.009931
  H           20.437532       23.868717       18.972412
  H           20.481947       23.678144       20.752022
  H           22.833333       23.548246       20.156446
  H           22.478636       22.599922       18.700468
  H           22.116531       21.684332       21.602170
  H           23.245389       20.996167       20.423099
  H           20.852196       19.818247       20.725308
  H           21.436476       20.122245       19.060495
  O           30.899371       18.960337       24.333911
  S           31.371752       18.039481       23.327193
  O           31.037510       18.198044       21.925109
  C           33.140076       17.883536       23.487543
  C           33.396303       16.383562       23.607235
  C           32.244862       15.821716       24.441688
  C           30.976975       16.373977       23.827138
  H           33.637963       18.325955       22.619860
  H           33.447227       18.403487       24.398317
  H           34.367425       16.179421       24.070646
  H           33.391107       15.919938       22.613089
  H           32.346535       16.171362       25.482750
  H           32.244513       14.730903       24.456705
  H           30.135565       16.390298       24.527041
  H           30.699720       15.813392       22.928820
  O           29.934351       21.353332        9.555688
  S           28.998695       21.668286       10.609231
  O           29.288451       21.387062       12.001946
  C           28.521539       23.378268       10.450223
  C           26.995714       23.361895       10.411602
  C           26.604833       22.117410        9.613937
  C           27.406196       20.976634       10.202706
  H           28.913423       23.958903       11.290337
  H           28.929327       23.760351        9.511116
  H           26.597340       24.274690        9.955968
  H           26.593827       23.288098       11.429610
  H           26.875035       22.265210        8.554906
  H           25.532339       21.922815        9.658552
  H           27.535212       20.141923        9.506494
  H           26.952491       20.616567       11.131470
  O           41.202644       18.028130       24.211318
  S           40.215734       18.791062       24.938328
  O           40.020185       18.629395       26.366027
  C           40.458790       20.519794       24.578595
  C           39.097165       21.021139       24.104746
  C           38.490118       19.885276       23.280665
  C           38.638470       18.635572       24.121161
  H           40.811480       21.044815       25.471042
  H           41.201271       20.601173       23.780911
  H           39.191856       21.940213       23.516667
  H           38.453633       21.235318       24.966891
  H           39.053424       19.779032       22.338434
  H           37.447497       20.077863       23.023855
  H           38.622003       17.716876       23.526327
  H           37.865620       18.588876       24.894868
  O           19.522311       32.386185       15.304581
  S           19.650264       33.367444       14.253221
  O           19.671858       32.992683       12.852583
  C           18.410458       34.624423       14.497938
  C           19.179522       35.942885       14.507790
  C           20.498120       35.659538       15.228077
  C           21.059378       34.406431       14.591750
  H           17.665160       34.579794       13.698539
  H           17.931322       34.447527       15.464031
  H           18.609760       36.734547       15.005928
  H           19.383649       36.267687       13.480105
  H           20.297060       35.485307       16.298413
  H           21.193509       36.496755       15.153226
  H           21.760047       33.874315       15.242916
  H           21.542646       34.634005       13.636364
  O           27.687449       23.731063        6.220537
  S           28.867783       22.978887        6.574998
  O           28.930889       22.172562        7.778559
  C           29.340009       21.975484        5.179582
  C           30.805438       22.317362        4.923581
  C           30.944982       23.815799        5.193795
  C           30.284682       24.060716        6.533280
  H           29.190450       20.916415        5.408723
  H           28.719842       22.263189        4.327045
  H           31.102828       22.062478        3.900794
  H           31.449000       21.757294        5.613110
  H           30.420619       24.377785        4.402837
  H           31.987696       24.136497        5.192868
  H           29.959238       25.097415        6.665349
  H           30.947300       23.773659        7.355858
  O            4.948280       29.930481       38.216988
  S            4.380144       29.446867       39.453086
  O            5.208857       29.053337       40.576060
  C            3.162825       30.621566       40.014530
  C            1.891939       29.803598       40.228253
  C            1.862729       28.764335       39.107146
  C            3.235549       28.127640       39.093582
  H            3.505430       31.110976       40.930826
  H            3.017730       31.365237       39.227065
  H            1.000003       30.438976       40.212669
  H            1.929488       29.296081       41.200013
  H            1.669088       29.271311       38.147001
  H            1.075553       28.023843       39.255892
  H            3.486922       27.676054       38.128708
  H            3.329234       27.379787       39.887332
  O           21.751553       13.802144       27.244029
  S           21.176237       14.741606       26.310742
  O           21.093809       14.459467       24.890776
  C           19.562175       15.211729       26.903013
  C           19.584277       16.737404       26.944582
  C           20.990071       17.129075       27.400802
  C           21.944938       16.334693       26.536287
  H           18.787477       14.821691       26.236519
  H           19.433076       14.798109       27.906234
  H           18.816862       17.130269       27.620031
  H           19.395178       17.144364       25.943620
  H           21.117763       16.853332       28.461020
  H           21.164350       18.202474       27.313960
  H           22.929854       16.205452       26.996001
  H           22.055278       16.794100       25.548931
  O           10.844292        4.311051        9.276175
  S            9.689558        5.154544        9.475444
  O            9.198211        6.040168        8.437683
  C            8.343331        4.142794       10.059426
  C            7.863662        4.821907       11.339513
  C            9.118697        5.347960       12.036617
  C            9.902642        6.091933       10.977308
  H            7.559919        4.081496        9.298500
  H            8.734168        3.144816       10.272703
  H            7.309323        4.125819       11.978004
  H            7.199383        5.659981       11.095247
  H            9.706892        4.496046       12.416971
  H            8.877067        5.989421       12.885288
  H           10.968693        6.171408       11.212511
  H            9.485833        7.089958       10.809036
  O           30.300584        7.693177       19.656967
  S           30.733972        7.758563       21.032649
  O           29.830717        8.129397       22.104709
  C           31.527636        6.218158       21.450083
  C           32.893230        6.613819       22.005514
  C           33.361002        7.806887       21.171500
  C           32.196719        8.773044       21.137055
  H           30.923253        5.667158       22.176457
  H           31.636339        5.631327       20.534652
  H           33.603040        5.781440       21.952451
  H           32.800073        6.913198       23.056701
  H           33.601516        7.464577       20.151021
  H           34.257708        8.269648       21.586073
  H           32.232921        9.454475       20.281228
  H           32.137029        9.349036       22.065909
  O           23.750527       19.893519       13.173815
  S           23.787676       18.795252       12.237317
  O           22.990718       18.792786       11.025892
  C           25.488083       18.470036       11.813229
  C           25.687972       16.982363       12.090311
  C           24.874924       16.671954       13.347451
  C           23.503964       17.269053       13.114771
  H           25.672197       18.730009       10.766799
  H           26.123823       19.074842       12.464569
  H           26.747389       16.739397       12.224854
  H           25.308142       16.388249       11.250040
  H           25.355210       17.149840       14.217709
  H           24.820496       15.600546       13.545497
  H           22.964781       17.474896       14.044831
  H           22.898330       16.622711       12.471692
  O           24.310582        8.685596        7.233513
  S           23.340990        9.659681        7.675837
  O           22.229288        9.300187        8.534663
  C           24.211265       11.036417        8.399865
  C           23.687265       12.267222        7.664716
  C           23.488181       11.839870        6.210228
  C           22.711280       10.542125        6.260047
  H           24.021449       11.078641        9.476289
  H           25.279657       10.899848        8.215239
  H           24.383777       13.108483        7.746271
  H           22.726410       12.580262        8.091404
  H           24.473143       11.675778        5.741908
  H           22.966630       12.600711        5.627814
  H           22.840547        9.932635        5.360096
  H           21.646231       10.728544        6.430395
  O           28.381088       40.996477       13.015203
  S           28.836887       39.958051       12.121604
  O           28.305906       39.812788       10.780091
  C           30.616034       40.024708       12.036794
  C           31.081927       38.610272       12.371777
  C           30.132825       38.096284       13.454746
  C           28.734182       38.384267       12.953684
  H           30.934395       40.346114       11.040880
  H           30.966944       40.736827       12.787758
  H           32.123278       38.601976       12.710923
  H           31.009496       37.969635       11.484287
  H           30.321230       38.644790       14.392853
  H           30.278854       37.034175       13.656493
  H           27.995779       38.442415       13.759588
  H           28.419643       37.638018       12.217289
  O           28.978959       26.405999       12.050765
  S           29.958418       26.853507       13.012533
  O           29.639716       27.002840       14.419242
  C           31.414226       25.837605       12.852639
  C           32.564897       26.821776       12.659601
  C           32.013574       27.954409       11.793006
  C           30.702925       28.364912       12.428526
  H           31.539713       25.215437       13.743515
  H           31.293141       25.204381       11.970275
  H           33.429364       26.339469       12.191011
  H           32.884786       27.222339       13.629405
  H           31.839313       27.577901       10.771108
  H           32.708738       28.792290       11.723714
  H           30.025178       28.860806       11.726496
  H           30.872587       29.009758       13.296563
  O           13.825537       10.834834       29.506188
  S           12.859602        9.806410       29.812644
  O           11.826377        9.997641       30.811932
  C           12.102231        9.269459       28.291108
  C           12.280059        7.753555       28.273418
  C           13.658581        7.481031       28.876086
  C           13.718305        8.282358       30.158469
  H           11.050313        9.568462       28.267344
  H           12.639926        9.732889       27.460255
  H           12.197620        7.353011       27.257413
  H           11.507941        7.276413       28.889428
  H           14.436324        7.827035       28.174803
  H           13.823627        6.417813       29.056163
  H           14.742204        8.501858       30.477139
  H           13.181336        7.773056       30.964927
  O           29.905751       38.741347       18.283397
  S           28.751482       38.891346       17.429135
  O           28.801341       38.588210       16.011982
  C           27.386072       38.011135       18.162540
  C           26.256686       39.034182       18.250653
  C           26.917726       40.366354       18.605821
  C           28.074424       40.527018       17.643305
  H           27.121105       37.146094       17.547726
  H           27.688983       37.680832       19.159207
  H           25.510211       38.742570       18.997135
  H           25.750552       39.121068       17.281334
  H           27.289508       40.322052       19.643229
  H           26.218245       41.200879       18.539527
  H           28.851709       41.199971       18.018888
  H           27.726014       40.873999       16.665392
  O            5.162937       21.996060       36.822944
  S            4.418063       21.536594       35.674618
  O            4.779445       21.917962       34.323077
  C            4.284266       19.761253       35.759847
  C            2.790487       19.470383       35.641868
  C            2.079411       20.583141       36.412544
  C            2.686478       21.880885       35.925175
  H            4.865888       19.300158       34.956350
  H            4.667301       19.436454       36.730409
  H            2.542863       18.481154       36.041377
  H            2.483409       19.497229       34.589118
  H            2.269176       20.456051       37.491542
  H            0.999337       20.560428       36.260805
  H            2.574947       22.700032       36.642572
  H            2.262158       22.174576       34.959878
  O           18.107782        3.687798       29.225588
  S           19.007458        2.558608       29.215020
  O           18.537447        1.201384       29.414350
  C           19.978577        2.622348       27.721747
  C           21.429762        2.550485       28.189506
  C           21.498812        3.360836       29.484251
  C           20.352451        2.872318       30.342974
  H           19.709495        1.793076       27.061138
  H           19.777882        3.574617       27.224650
  H           22.114554        2.943609       27.430550
  H           21.709413        1.509174       28.391412
  H           21.369644        4.430862       29.250245
  H           22.459143        3.245227       29.988731
  H           20.039133        3.604953       31.093426
  H           20.604185        1.926246       30.832543
  O           29.313218       35.462654       28.970461
  S           28.439303       35.977642       29.997914
  O           28.836767       36.022030       31.391740
  C           27.876146       37.594990       29.503910
  C           26.353564       37.527085       29.587769
  C           25.964758       36.125608       29.116079
  C           26.855158       35.167864       29.877731
  H           28.298637       38.359050       30.162858
  H           28.200635       37.769733       28.475138
  H           25.884191       38.303772       28.974625
  H           26.026582       37.670497       30.624985
  H           26.154355       36.041431       28.032858
  H           24.907701       35.915451       29.285089
  H           26.973118       34.203063       29.374398
  H           26.483207       35.010966       30.895147
  O           13.605868       17.795832       22.059000
  S           14.071937       17.183459       23.280629
  O           13.401555       17.394735       24.548955
  C           14.249980       15.431701       23.003777
  C           15.680317       15.107131       23.426497
  C           16.532706       16.298797       22.989271
  C           15.808808       17.532377       23.483692
  H           13.505577       14.880327       23.585456
  H           14.107182       15.238534       21.937712
  H           16.029347       14.173412       22.972793
  H           15.734937       14.995409       24.516375
  H           16.599863       16.312787       21.888502
  H           17.548555       16.241715       23.382835
  H           16.070336       18.434528       22.921707
  H           15.993479       17.694780       24.550285
  O           32.279585       18.326578       32.159023
  S           33.447021       18.742149       32.899964
  O           34.651822       19.203378       32.237829
  C           32.949048       19.954531       34.107917
  C           33.475439       19.426271       35.439741
  C           33.304528       17.907643       35.391187
  C           33.884756       17.465408       34.065305
  H           33.363393       20.934034       33.852196
  H           31.857301       20.002018       34.113601
  H           32.936387       19.866049       36.285625
  H           34.538400       19.673923       35.549660
  H           32.230444       17.661453       35.437391
  H           33.794488       17.413557       36.231376
  H           33.486256       16.504647       33.724371
  H           34.977282       17.416962       34.111568
  O           37.641675       12.149502       24.210607
  S           37.821251       10.775838       23.803916
  O           36.750109        9.802636       23.894650
  C           38.482783       10.757179       22.148916
  C           39.736263        9.890222       22.233020
  C           40.380349       10.205488       23.583412
  C           39.269112       10.113140       24.606557
  H           37.741912       10.356400       21.451072
  H           38.738386       11.782963       21.872088
  H           40.420246       10.094381       21.402366
  H           39.463335        8.828481       22.194083
  H           40.791399       11.228656       23.559625
  H           41.200155        9.524002       23.814919
  H           39.478414       10.684319       25.516528
  H           39.058968        9.070419       24.864767
  O           20.771224       40.969943       12.715029
  S           21.464591       39.731545       12.980007
  O           21.357047       39.049825       14.255308
  C           21.086062       38.579895       11.673326
  C           22.442365       38.112006       11.152345
  C           23.359145       39.334809       11.197828
  C           23.190579       39.930598       12.578705
  H           20.478900       37.756481       12.060423
  H           20.535391       39.115066       10.895795
  H           22.362717       37.705009       10.138683
  H           22.844852       37.325562       11.802584
  H           23.038029       40.058171       10.429692
  H           24.398866       39.074634       10.994385
  H           23.457589       40.991255       12.621272
  H           23.771441       39.373147       13.320289
  O           22.841968        5.128344       23.292610
  S           22.514570        3.837883       22.733930
  O           21.172685        3.511442       22.291799
  C           23.661308        3.483996       21.416070
  C           24.247569        2.116657       21.757511
  C           24.404473        2.090043       23.278193
  C           23.081138        2.560589       23.841729
  H           23.142485        3.489071       20.453108
  H           24.438332        4.252348       21.424442
  H           25.204510        1.953815       21.250316
  H           23.558674        1.322500       21.444398
  H           25.210896        2.782602       23.572206
  H           24.669589        1.097434       23.644992
  H           23.168615        2.965412       24.854925
  H           22.340106        1.755115       23.828205
  O            2.530832       26.733899        0.996362
  S            2.281075       25.648616        1.915265
  O            0.982810       25.010260        2.013810
  C            3.525005       24.396887        1.664640
  C            4.127367       24.154717        3.046094
  C            4.181054       25.520706        3.730924
  C            2.808901       26.132326        3.548398
  H            3.073059       23.495583        1.240497
  H            4.276274       24.795110        0.978190
  H            5.121082       23.699776        2.974973
  H            3.485513       23.478154        3.623663
  H            4.944457       26.144834        3.236880
  H            4.450202       25.439793        4.785017
  H            2.814988       27.224271        3.624021
  H            2.094987       25.716067        4.266142
  O           28.408761       31.453707       24.947682
  S           28.460647       30.707418       23.712789
  O           29.281473       31.130394       22.594738
  C           28.832719       29.006538       24.094323
  C           27.728956       28.198082       23.417561
  C           26.447915       29.018848       23.569480
  C           26.799097       30.424014       23.130868
  H           29.829113       28.746489       23.725441
  H           28.793695       28.883906       25.179513
  H           27.627416       27.204799       23.867647
  H           27.957557       28.065880       22.352871
  H           26.138841       29.016929       24.628191
  H           25.625604       28.606379       22.983157
  H           26.129115       31.181639       23.549471
  H           26.810428       30.503156       22.039214
  O           28.230305       24.403787        4.197637
  S           27.981737       23.915956        2.861660
  O           29.061441       23.613170        1.942280
  C           26.897006       22.505513        2.966593
  C           25.735433       22.828506        2.030471
  C           25.473844       24.327464        2.180462
  C           26.822788       25.000809        2.049484
  H           27.430772       21.596600        2.674237
  H           26.550267       22.417862        3.999206
  H           24.846980       22.237328        2.276760
  H           26.014144       22.605270        0.993270
  H           25.046192       24.523405        3.178019
  H           24.764868       24.695568        1.437526
  H           26.853742       25.989076        2.519026
  H           27.121163       25.080966        0.999414
  O           13.824452        4.598574        8.515373
  S           14.516478        4.198433        9.717699
  O           15.963232        4.124006        9.781432
  C           13.927380        5.199325       11.069801
  C           13.489384        4.202260       12.139344
  C           12.857670        3.027864       11.391325
  C           13.835716        2.655883       10.298047
  H           14.720705        5.866764       11.418599
  H           13.076581        5.785980       10.714590
  H           12.785809        4.656284       12.845279
  H           14.360189        3.851800       12.706950
  H           11.899617        3.351053       10.950778
  H           12.651163        2.185002       12.052414
  H           13.363072        2.126411        9.464760
  H           14.660535        2.056696       10.696478
  O           26.808835       21.432797       15.558734
  S           27.430149       22.093817       14.435515
  O           27.386473       21.536758       13.097428
  C           26.853544       23.779501       14.380778
  C           28.120193       24.630784       14.352202
  C           29.124719       23.927512       15.265514
  C           29.123632       22.473880       14.844620
  H           26.224314       23.934481       13.499557
  H           26.276817       23.972452       15.288719
  H           27.921187       25.655201       14.684565
  H           28.519965       24.677266       13.331750
  H           28.790675       24.020588       16.312487
  H           30.120343       24.367751       15.194648
  H           29.470548       21.800615       15.634850
  H           29.725521       22.326028       13.942417
  O           21.344127       20.782878       27.119427
  S           22.762849       20.523612       27.051540
  O           23.555893       20.279751       28.240789
  C           23.042007       19.202788       25.887712
  C           24.069474       19.753509       24.902361
  C           23.718660       21.228379       24.703642
  C           23.546124       21.806126       26.091676
  H           23.398045       18.309573       26.409155
  H           22.097000       18.987429       25.382952
  H           24.050629       19.203256       23.955594
  H           25.078740       19.668537       25.323623
  H           22.773702       21.304104       24.139975
  H           24.485787       21.758922       24.137833
  H           22.923899       22.706551       26.104735
  H           24.516269       22.020525       26.550971
  O            4.384418       27.243187       31.791969
  S            5.326311       26.153654       31.690225
  O            4.974466       24.890774       31.070515
  C            6.824197       26.767879       30.944526
  C            7.938398       26.372683       31.910071
  C            7.359554       26.536396       33.315751
  C            6.021442       25.829706       33.300055
  H            6.956859       26.331748       29.950197
  H            6.745661       27.855074       30.866808
  H            8.830354       26.991791       31.766473
  H            8.223079       25.325688       31.748649
  H            7.220421       27.609620       33.528434
  H            8.022089       26.129769       34.081128
  H            5.338385       26.192166       34.074753
  H            6.148324       24.746779       33.396332
  O           29.061582       32.722391       16.770729
  S           28.221999       33.057656       15.644986
  O           28.776530       33.475971       14.372112
  C           27.083417       31.714566       15.367963
  C           25.700908       32.361526       15.364262
  C           25.742573       33.457644       16.429433
  C           27.002359       34.251928       16.160633
  H           27.314168       31.213175       14.423579
  H           27.179516       31.009309       16.197165
  H           24.915160       31.627265       15.571529
  H           25.496751       32.808574       14.383564
  H           25.792347       32.991939       17.427953
  H           24.853413       34.089101       16.401921
  H           27.364447       34.789141       17.042900
  H           26.854456       34.954855       15.334729
  O           28.788746        8.065071       24.040947
  S           29.371255        9.071501       24.896740
  O           29.024341       10.474384       24.777291
  C           29.159747        8.564377       26.592349
  C           30.560139        8.612016       27.197767
  C           31.512451        8.131107       26.102492
  C           31.147040        8.913633       24.859782
  H           28.459895        9.233242       27.101590
  H           28.769569        7.543622       26.597023
  H           30.629373        7.987949       28.095123
  H           30.813614        9.641177       27.480394
  H           31.355607        7.052692       25.932722
  H           32.558334        8.274927       26.377347
  H           31.452104        8.413170       23.935351
  H           31.571842        9.921908       24.891788
  O           35.962870       31.896269       35.694377
  S           36.335005       32.149936       34.322602
  O           35.762019       31.400735       33.221200
  C           36.147506       33.892490       33.998025
  C           37.495952       34.338731       33.439042
  C           38.556444       33.555725       34.213675
  C           38.112165       32.109414       34.182028
  H           35.326360       34.058964       33.294813
  H           35.934556       34.394903       34.944826
  H           37.634966       35.419879       33.545315
  H           37.561921       34.091863       32.372269
  H           38.589654       33.920740       35.253897
  H           39.552071       33.681838       33.785981
  H           38.531890       31.516126       35.000527
  H           38.359926       31.643591       33.223006
  O           35.264591       34.802548       21.403258
  S           35.573861       36.128183       20.921964
  O           34.963031       37.313255       21.492220
  C           37.344621       36.331676       20.921755
  C           37.691940       36.778306       19.504084
  C           36.755830       36.005459       18.574457
  C           35.366524       36.170319       19.151389
  H           37.639999       37.065932       21.676818
  H           37.799312       35.363573       21.145882
  H           38.743995       36.583775       19.269908
  H           37.513803       37.855084       19.394010
  H           37.043209       34.940653       18.573073
  H           36.811429       36.365338       17.546111
  H           34.679462       35.375977       18.843062
  H           34.945534       37.145878       18.888420
  O           25.762875       19.236650       35.471424
  S           26.697883       20.324455       35.306984
  O           27.852529       20.480677       36.170169
  C           27.235643       20.356906       33.607937
  C           26.970227       21.783894       33.135541
  C           25.660373       22.213137       33.797231
  C           25.800650       21.864831       35.263248
  H           28.292579       20.083086       33.541542
  H           26.629890       19.642770       33.044666
  H           26.907355       21.838509       32.043495
  H           27.781832       22.445854       33.461741
  H           24.825459       21.647908       33.350201
  H           25.457286       23.275107       33.652061
  H           24.836548       21.742721       35.766932
  H           26.400130       22.614568       35.789193
  O           25.738139       20.531663       28.122503
  S           26.034798       21.117510       29.408340
  O           27.332197       20.968025       30.038507
  C           25.613362       22.848491       29.352682
  C           24.682252       23.068019       30.542110
  C           23.816021       21.811914       30.640304
  C           24.771860       20.640552       30.573329
  H           26.518957       23.459237       29.410888
  H           25.093015       23.042847       28.411585
  H           24.073170       23.968946       30.412299
  H           25.267704       23.184516       31.462423
  H           23.119267       21.783608       29.785826
  H           23.220734       21.795680       31.554345
  H           24.291444       19.716557       30.236381
  H           25.256622       20.473724       31.540424
  O           20.113515        7.836419       38.405029
  S           20.659916        8.635476       37.333789
  O           19.852142        9.066458       36.209309
  C           21.470475       10.055526       38.043332
  C           22.881127       10.038851       37.460509
  C           23.289767        8.567656       37.380519
  C           22.136028        7.850615       36.713480
  H           20.923000       10.968008       37.790060
  H           21.497339        9.926382       39.128137
  H           23.576023       10.617522       38.078375
  H           22.878214       10.475504       36.454216
  H           23.441651        8.176996       38.400674
  H           24.222149        8.431151       36.830857
  H           22.107845        6.780968       36.944046
  H           22.159014        7.994423       35.628634
  O           31.711321        7.685522       12.005798
  S           32.495384        7.010745       10.998565
  O           31.991676        6.785772        9.657533
  C           34.087531        7.805197       10.894087
  C           35.104026        6.679770       11.067442
  C           34.508240        5.725762       12.103159
  C           33.086092        5.462714       11.657626
  H           34.190476        8.318851        9.933846
  H           34.163481        8.525977       11.711955
  H           36.077584        7.065960       11.387665
  H           35.245461        6.150152       10.117284
  H           34.512845        6.214366       13.091918
  H           35.082606        4.802084       12.186968
  H           32.435278        5.139887       12.476360
  H           33.057984        4.724436       10.850002
  O           22.946575       30.789626       11.481512
  S           21.934782       30.619930       12.497425
  O           20.559830       31.029577       12.286725
  C           21.957155       28.922531       13.040872
  C           22.103292       28.994320       14.558565
  C           23.045085       30.165681       14.839173
  C           22.517384       31.328245       14.026661
  H           21.038639       28.415355       12.731679
  H           22.823326       28.431500       12.590498
  H           22.493276       28.056201       14.967644
  H           21.127976       29.186673       15.022309
  H           24.062987       29.900729       14.507398
  H           23.094627       30.405426       15.902267
  H           23.281865       32.082310       13.814396
  H           21.662504       31.798130       14.523137
  O            4.759872       34.906496       20.018256
  S            4.551897       36.328920       19.883878
  O            5.158720       37.095121       18.812710
  C            2.798623       36.649243       19.904514
  C            2.599763       37.694959       20.998512
  C            3.582096       37.334673       22.113418
  C            4.919521       37.122746       21.437709
  H            2.467921       37.001202       18.923055
  H            2.284819       35.718959       20.159027
  H            1.565767       37.704558       21.359428
  H            2.832737       38.694452       20.611165
  H            3.250975       36.403024       22.602078
  H            3.634735       38.110121       22.878930
  H            5.597153       36.491607       22.021300
  H            5.403610       38.079276       21.216783
  O            3.027872       30.624739       23.683918
  S            3.469446       31.985589       23.489755
  O            4.600924       32.535263       24.211083
  C            3.705410       32.260753       21.744588
  C            2.874252       33.499953       21.422934
  C            1.609162       33.395249       22.275216
  C            2.078000       33.084379       23.680119
  H            4.767896       32.399998       21.524967
  H            3.325306       31.388434       21.207206
  H            2.637698       33.556769       20.355080
  H            3.428265       34.406500       21.695961
  H            0.980996       32.573125       21.893222
  H            1.015514       34.309846       22.240655
  H            1.308335       32.600175       24.289431
  H            2.433974       33.988432       24.184174
  O           40.856838        7.743329       27.597874
  S           39.678742        7.019218       28.013028
  O           38.663457        7.623447       28.853745
  C           38.898505        6.330133       26.566171
  C           38.747052        4.841687       26.868644
  C           40.003855        4.435210       27.638722
  C           40.172022        5.465049       28.734785
  H           37.937847        6.821123       26.385716
  H           39.562941        6.486987       25.712871
  H           38.629917        4.256791       25.950126
  H           37.861443        4.672385       27.493411
  H           40.870911        4.459692       26.957536
  H           39.927610        3.424582       28.042354
  H           41.202450        5.538728       29.096569
  H           39.499620        5.258952       29.573534
  O           28.525355       35.542897       35.224644
  S           27.399376       35.536505       34.320912
  O           27.157544       34.439141       33.404393
  C           25.916770       35.843783       35.261369
  C           25.242466       37.022394       34.564168
  C           26.370852       37.949144       34.110646
  C           27.376705       37.066034       33.404546
  H           25.287241       34.949367       35.276033
  H           26.208207       36.110741       36.280190
  H           24.542996       37.535622       35.232628
  H           24.680224       36.671583       33.690031
  H           26.832303       38.419255       34.995212
  H           26.008718       38.747716       33.461615
  H           28.382692       37.496935       33.384213
  H           27.051380       36.838448       32.384513
  O           15.240714       20.725364       10.801460
  S           16.513019       21.019011       10.185333
  O           17.112962       20.134755        9.205098
  C           16.450229       22.669580        9.515497
  C           17.659654       23.385242       10.111330
  C           17.791466       22.873003       11.545916
  C           17.713066       21.364237       11.458284
  H           16.480289       22.634527        8.422625
  H           15.520142       23.137390        9.847597
  H           17.535631       24.472996       10.081174
  H           18.564261       23.131524        9.545103
  H           16.954488       23.262966       12.149071
  H           18.719810       23.202644       12.014545
  H           17.397181       20.898166       12.396951
  H           18.669731       20.939415       11.138254
  O           33.235331       41.200068        6.123757
  S           33.228197       40.362745        7.299954
  O           32.935122       40.893046        8.617371
  C           32.171164       38.961263        6.990878
  C           33.032067       37.739611        7.301221
  C           34.441254       38.078938        6.814551
  C           34.757214       39.448385        7.375786
  H           31.278471       39.015961        7.620646
  H           31.884476       38.976127        5.936464
  H           32.641914       36.840687        6.812125
  H           33.050083       37.556257        8.382589
  H           34.447239       38.109066        5.712073
  H           35.173557       37.334399        7.129978
  H           35.528948       39.975395        6.805884
  H           35.054266       39.382690        8.427234
  O            9.719348       33.632479        9.369866
  S           10.371164       34.880133        9.048783
  O            9.643593       36.133134        8.991069
  C           11.779246       35.076403       10.123856
  C           12.959647       35.326661        9.189016
  C           12.728256       34.438296        7.966288
  C           11.297691       34.683660        7.537940
  H           11.611235       35.904912       10.818006
  H           11.915723       34.146019       10.680595
  H           13.912661       35.099151        9.678408
  H           12.979727       36.379279        8.880971
  H           12.863332       33.382176        8.253976
  H           13.433401       34.655993        7.162871
  H           10.879035       33.857058        6.955225
  H           11.212135       35.616090        6.971059
  O           10.296078        4.979488       19.187861
  S           10.950451        5.290463       17.938985
  O           12.294333        5.833063       17.891370
  C           10.866427        3.856726       16.883363
  C           10.251538        4.359820       15.580018
  C            9.197873        5.393381       15.979194
  C            9.878233        6.324692       16.958975
  H           11.865373        3.434711       16.740152
  H           10.215666        3.119628       17.360225
  H            9.813169        3.539480       15.001767
  H           11.020331        4.837967       14.960636
  H            8.352206        4.880102       16.466834
  H            8.805414        5.932273       15.115672
  H            9.172041        6.845680       17.613165
  H           10.505276        7.054055       16.436532
  O           37.060368       17.950370       16.162782
  S           37.784070       17.372562       17.270479
  O           37.587199       17.823828       18.634408
  C           37.589443       15.601773       17.211958
  C           39.010698       15.045804       17.240840
  C           39.858574       16.005037       16.404911
  C           39.529042       17.395165       16.904063
  H           36.988350       15.260164       18.059596
  H           37.091044       15.344137       16.274183
  H           39.048927       14.024940       16.846030
  H           39.386206       15.024859       18.271303
  H           39.578379       15.905923       15.342806
  H           40.924431       15.788055       16.488385
  H           39.739067       18.174802       16.165039
  H           40.062000       17.614681       17.834584
  O           19.725693       13.879711       36.726851
  S           19.106373       15.140784       37.059621
  O           19.657363       16.023089       38.069892
  C           18.859336       16.064634       35.555468
  C           17.378024       16.432894       35.555439
  C           16.641503       15.228858       36.143344
  C           17.380115       14.868653       37.414134
  H           19.509902       16.943879       35.541691
  H           19.096970       15.412342       34.711522
  H           17.024491       16.668538       34.545991
  H           17.208578       17.313023       36.187865
  H           16.685602       14.391146       35.427318
  H           15.589807       15.446137       36.335241
  H           17.226870       13.827828       37.716292
  H           17.099112       15.536852       38.234285
  O           34.774597       17.927615       27.805696
  S           35.783955       17.351317       26.949146
  O           35.856755       17.659964       25.534177
  C           37.381588       17.634124       27.687109
  C           38.030883       16.255013       27.766906
  C           36.908029       15.276847       28.113591
  C           35.780003       15.579642       27.151264
  H           37.959680       18.335044       27.077995
  H           37.227261       18.048690       28.686368
  H           38.830878       16.232239       28.514562
  H           38.466335       15.986867       26.796452
  H           36.580132       15.453580       29.151689
  H           37.233150       14.238053       28.040761
  H           34.803163       15.254584       27.523044
  H           35.969895       15.132065       26.170592
  O            9.189841       38.517020       15.107116
  S            8.551160       38.836397       13.852252
  O            8.141333       40.187595       13.522089
  C            9.555097       38.194847       12.526536
  C            8.607271       37.339371       11.690063
  C            7.669941       36.650571       12.682416
  C            7.167072       37.739630       13.605061
  H            9.993703       39.017020       11.953688
  H           10.346948       37.581904       12.964113
  H            9.156015       36.612210       11.082100
  H            8.023856       37.975461       11.013072
  H            8.237320       35.898350       13.255692
  H            6.849489       36.135613       12.180642
  H            6.825345       37.355933       14.571549
  H            6.365758       38.315917       13.131892
  O           37.497311       10.206625       29.487760
  S           37.288083       11.501574       28.884494
  O           38.369887       12.451856       28.713132
  C           36.465624       11.271174       27.320052
  C           35.232936       12.169078       27.384457
  C           34.723891       12.088218       28.823949
  C           35.931870       12.317007       29.706355
  H           37.136387       11.538311       26.498338
  H           36.176450       10.220524       27.238108
  H           34.468401       11.850813       26.667733
  H           35.508249       13.204436       27.148795
  H           34.305189       11.084103       29.005172
  H           33.936031       12.816608       29.020991
  H           35.809880       11.903300       30.712369
  H           36.174083       13.382448       29.771690
  O           29.945678        8.715907       12.818537
  S           29.903500        7.802974       13.936292
  O           30.978050        6.866508       14.202891
  C           29.567083        8.736165       15.417163
  C           28.357541        8.053001       16.049771
  C           27.457911        7.624124       14.890233
  C           28.359289        6.911828       13.905169
  H           30.442274        8.730891       16.073298
  H           29.325609        9.761615       15.126742
  H           27.834434        8.724075       16.739351
  H           28.677023        7.168604       16.614636
  H           27.016336        8.520092       14.422628
  H           26.638360        6.985413       15.222624
  H           27.958576        6.906875       12.886589
  H           28.560374        5.885539       14.228271
  O            7.649350       31.783211       10.896730
  S            7.597276       31.127614       12.182063
  O            7.796381       31.852933       13.421808
  C            6.074414       30.207352       12.286999
  C            6.494528       28.786648       12.654427
  C            7.795380       28.519512       11.896652
  C            8.684927       29.714704       12.162021
  H            5.413540       30.655660       13.034505
  H            5.594705       30.228456       11.305350
  H            5.718436       28.059662       12.392374
  H            6.675687       28.714600       13.733913
  H            7.577633       28.439377       10.818429
  H            8.267456       27.587234       12.209866
  H            9.453201       29.853489       11.394822
  H            9.155545       29.642594       13.147627
  O            9.581106       28.954260       18.083366
  S            9.447917       28.330088       19.378461
  O            8.301056       28.571842       20.232256
  C            9.665934       26.571706       19.184656
  C           10.757944       26.195492       20.182593
  C           11.757559       27.352425       20.173840
  C           10.935269       28.614429       20.320074
  H            8.723586       26.051175       19.378378
  H            9.993722       26.379447       18.160063
  H           11.235874       25.247384       19.913943
  H           10.329572       26.086493       21.186544
  H           12.296772       27.359144       19.211756
  H           12.498755       27.258943       20.968817
  H           11.447003       29.503698       19.938723
  H           10.643836       28.774377       21.362947
  O            4.554662       24.414825       19.212727
  S            3.525525       24.287508       18.208103
  O            3.186207       25.378314       17.314959
  C            3.856280       22.827556       17.240560
  C            2.563843       22.017075       17.291805
  C            2.005359       22.197899       18.703612
  C            2.031772       23.686573       18.974445
  H            4.136061       23.106439       16.220537
  H            4.675460       22.281947       17.715382
  H            2.744192       20.961658       17.061438
  H            1.845970       22.405932       16.559174
  H            2.654627       21.669135       19.421429
  H            0.999386       21.787370       18.801511
  H            2.045054       23.925772       20.042484
  H            1.185811       24.188033       18.493833
  O            4.681340       36.304379       31.825559
  S            3.958835       37.162131       30.916247
  O            3.917940       36.906442       29.489485
  C            2.292206       37.350749       31.519381
  C            2.068267       38.858483       31.599946
  C            3.394158       39.459982       32.066865
  C            4.461513       38.852076       31.182895
  H            1.588150       36.857926       30.842676
  H            2.235005       36.896458       32.511625
  H            1.249957       39.105262       32.284760
  H            1.812512       39.254849       30.609601
  H            3.568368       39.181674       33.119763
  H            3.392845       40.549287       32.007591
  H            5.456001       38.871707       31.639742
  H            4.492876       39.348113       30.207671
  O            1.003415        5.869976        6.280397
  S            1.834854        5.289337        7.308097
  O            1.284378        4.813717        8.562474
  C            2.816345        3.993346        6.577287
  C            4.258122        4.331999        6.946739
  C            4.367713        5.855390        6.875534
  C            3.189728        6.394704        7.657640
  H            2.502425        3.019195        6.963270
  H            2.675032        4.027852        5.494217
  H            4.969160        3.844392        6.271339
  H            4.474636        3.994512        7.967780
  H            4.303292        6.175230        5.821991
  H            5.316711        6.216555        7.274360
  H            2.916065        7.414187        7.368047
  H            3.382398        6.355421        8.734411
  O           22.365517        5.349211       10.150633
  S           23.571574        4.875330        9.513875
  O           23.657903        3.555030        8.920531
  C           24.090895        6.085682        8.312895
  C           25.543721        6.394745        8.664572
  C           25.623890        6.375977       10.191340
  C           24.946123        5.095385       10.628277
  H           23.980655        5.684601        7.301222
  H           23.465599        6.974024        8.431446
  H           25.857212        7.361333        8.256001
  H           26.203895        5.622141        8.251591
  H           25.083399        7.248937       10.594095
  H           26.653503        6.429955       10.547825
  H           24.580270        5.136507       11.659083
  H           25.614004        4.236698       10.507068
  O           40.076940        6.494931       21.159062
  S           39.557632        6.453890       22.505626
  O           40.130662        7.250219       23.573427
  C           37.800332        6.745590       22.443907
  C           37.177195        5.571278       23.193968
  C           38.018914        4.345573       22.837660
  C           39.460823        4.756458       23.043263
  H           37.561712        7.709769       22.902076
  H           37.490940        6.744626       21.395825
  H           36.126303        5.432965       22.918294
  H           37.223330        5.747937       24.275616
  H           37.845808        4.080879       21.781075
  H           37.755764        3.477938       23.444341
  H           40.164323        4.147813       22.466427
  H           39.729915        4.727093       24.103842
  O           25.298101       23.792410       23.931596
  S           25.679485       23.498562       22.570420
  O           24.698838       23.366853       21.510380
  C           26.924737       24.669802       22.065895
  C           28.086856       23.819264       21.559966
  C           28.150029       22.598140       22.477935
  C           26.736764       22.062710       22.556645
  H           26.525987       25.335766       21.295187
  H           27.221915       25.250659       22.942530
  H           29.027286       24.380505       21.569918
  H           27.896236       23.495733       20.529291
  H           28.493803       22.912724       23.477564
  H           28.847452       21.844615       22.109289
  H           26.556353       21.465135       23.455787
  H           26.489400       21.475412       21.666706
  O            7.945222       17.016924        9.482154
  S            7.036940       16.456444        8.509793
  O            7.505161       15.890805        7.259385
  C            5.993512       15.266446        9.329649
  C            4.566773       15.693530        8.995114
  C            4.568636       17.222494        9.003295
  C            5.752147       17.642063        8.158628
  H            6.222722       14.256981        8.976176
  H            6.177076       15.335161       10.404722
  H            3.848417       15.287143        9.715054
  H            4.288987       15.330917        7.997794
  H            4.694772       17.579920       10.039025
  H            3.633594       17.634972        8.621643
  H            6.108267       18.650008        8.393838
  H            5.517287       17.572581        7.091804
  O            6.272416       36.324691       33.344739
  S            6.143293       36.767925       34.712756
  O            4.989225       36.429820       35.523011
  C            7.624137       36.316809       35.596269
  C            8.116555       37.613948       36.232553
  C            7.835338       38.719402       35.214374
  C            6.397238       38.531555       34.782192
  H            7.400371       35.544608       36.337980
  H            8.351137       35.939006       34.873126
  H            9.181249       37.557549       36.483043
  H            7.561154       37.814701       37.156960
  H            8.510868       38.598288       34.351014
  H            8.005181       39.712977       35.631580
  H            6.185018       38.972005       33.802873
  H            5.706949       38.938395       35.527901
  O            7.824958       20.325087        4.478575
  S            8.726958       19.206054        4.341602
  O           10.110342       19.278897        4.770141
  C            7.966507       17.772337        5.078602
  C            8.004395       16.701073        3.991930
  C            7.743261       17.426611        2.671626
  C            8.676929       18.617538        2.659091
  H            8.513146       17.476099        5.978562
  H            6.935586       18.027405        5.336173
  H            7.260903       15.918222        4.175951
  H            8.993928       16.228536        3.963039
  H            6.694070       17.765558        2.644889
  H            7.904355       16.778026        1.809370
  H            8.334904       19.420915        1.999012
  H            9.692128       18.317480        2.380816
  O           19.297709       38.913291       26.126050
  S           20.111103       39.663779       27.053282
  O           19.578154       40.777262       27.814086
  C           20.895891       38.519813       28.172410
  C           22.384923       38.845859       28.092536
  C           22.665175       39.193974       26.630320
  C           21.601139       40.192277       26.228550
  H           20.493226       38.643457       29.181902
  H           20.701142       37.505474       27.815496
  H           22.997527       38.003544       28.431242
  H           22.616023       39.709888       28.727632
  H           22.581143       38.281070       26.017178
  H           23.669611       39.596070       26.490581
  H           21.431424       40.223174       25.147651
  H           21.845937       41.194915       26.593092
  O           37.450782       13.565656       21.814526
  S           38.565096       14.041945       21.029635
  O           38.900673       13.462634       19.743367
  C           38.415892       15.808838       20.848452
  C           39.752431       16.370375       21.326197
  C           40.179582       15.500674       22.508975
  C           40.028787       14.067222       22.047804
  H           38.202137       16.064450       19.806593
  H           37.600009       16.149939       21.490468
  H           39.664550       17.424171       21.611311
  H           40.499493       16.296935       20.526319
  H           39.511564       15.697340       23.364237
  H           41.199982       15.716900       22.828551
  H           39.911612       13.362339       22.876966
  H           40.874809       13.765016       21.422489
  O           10.454047       15.203319       16.626121
  S           11.462900       16.099160       17.140206
  O           12.749625       16.259046       16.490995
  C           10.727579       17.706005       17.373344
  C           11.031497       18.074224       18.823154
  C           10.917131       16.776420       19.623421
  C           11.730733       15.748139       18.867849
  H           11.150341       18.421114       16.661732
  H            9.650348       17.614621       17.213902
  H           10.341452       18.839327       19.194576
  H           12.051568       18.469119       18.905699
  H            9.859088       16.467949       19.665732
  H           11.269116       16.895660       20.649085
  H           11.426113       14.719505       19.085148
  H           12.799783       15.867637       19.070216
  O           34.735844       30.070986       35.633126
  S           35.463914       28.856680       35.915928
  O           35.073797       27.960019       36.986679
  C           35.617026       27.923403       34.405117
  C           37.111204       27.647448       34.259580
  C           37.825240       28.904911       34.756310
  C           37.196303       29.241202       36.091057
  H           35.025288       27.005527       34.467157
  H           35.255279       28.544732       33.582142
  H           37.376065       27.416284       33.222318
  H           37.398475       26.790798       34.881614
  H           37.656745       29.725499       34.038924
  H           38.902495       28.756469       34.843402
  H           37.312879       30.294689       36.364322
  H           37.599737       28.606258       36.886159
  O            7.566611       22.044929        5.825689
  S            6.502149       21.876761        6.786543
  O            6.767863       21.647028        8.193426
  C            5.372850       23.246399        6.625991
  C            4.000273       22.607511        6.431688
  C            4.227820       21.368589        5.565031
  C            5.379514       20.620996        6.201354
  H            5.418356       23.879229        7.517033
  H            5.660303       23.824006        5.743981
  H            3.297513       23.304389        5.962658
  H            3.583744       22.307398        7.401088
  H            4.497655       21.684659        4.543420
  H            3.333201       20.748238        5.494874
  H            5.899735       19.961421        5.499621
  H            5.042160       20.045245        7.068996
  O           32.154162       33.269843       31.370217
  S           32.853555       33.343248       30.109241
  O           32.628741       32.378757       29.050036
  C           32.657542       34.986780       29.447891
  C           34.077039       35.473008       29.167694
  C           34.943736       34.929474       30.304007
  C           34.605875       33.458790       30.418637
  H           32.038256       34.959325       28.546652
  H           32.178576       35.606351       30.210073
  H           34.122025       36.565951       29.113363
  H           34.430776       35.071308       28.210193
  H           34.685776       35.453057       31.239804
  H           36.007276       35.086280       30.118549
  H           34.832556       33.044638       31.406156
  H           35.119488       32.876754       29.646928
  O           25.261121       14.528713       38.781304
  S           24.911307       15.508874       39.782061
  O           24.972957       15.212894       41.200262
  C           25.833035       17.000189       39.460509
  C           24.784166       18.106939       39.390660
  C           23.565963       17.493947       38.699269
  C           23.303376       16.181151       39.404829
  H           26.567458       17.168075       40.253566
  H           26.341642       16.886496       38.499992
  H           25.159774       18.980190       38.846738
  H           24.509588       18.430197       40.402298
  H           23.803374       17.314175       37.637329
  H           22.698181       18.153911       38.738005
  H           22.743368       15.470340       38.789006
  H           22.779236       16.342624       40.352090
  O           37.201385       34.873527        9.628559
  S           37.164175       36.261255        9.231788
  O           37.171578       36.661075        7.837948
  C           35.792221       37.048469       10.053394
  C           36.394914       38.261541       10.757041
  C           37.767632       37.818985       11.264574
  C           38.449562       37.149531       10.091116
  H           35.024551       37.324950        9.324874
  H           35.379705       36.343903       10.779767
  H           35.754801       38.608189       11.575326
  H           36.514101       39.088626       10.046391
  H           37.634985       37.098515       12.089030
  H           38.352199       38.656858       11.647132
  H           39.236823       36.452784       10.395853
  H           38.860466       37.892237        9.399997
  O           25.931414       10.458785       35.604415
  S           26.015698       11.420336       36.678154
  O           25.789375       11.047724       38.061135
  C           27.577127       12.271095       36.555079
  C           27.219783       13.755012       36.541161
  C           25.929301       13.873050       35.729666
  C           24.989897       12.825323       36.286430
  H           28.220389       12.002683       37.398091
  H           28.052423       11.977663       35.615828
  H           28.025668       14.356419       36.107157
  H           27.045259       14.110136       37.564258
  H           26.146943       13.663611       34.668927
  H           25.498823       14.873707       35.788618
  H           24.213971       12.526465       35.574586
  H           24.525895       13.168627       37.216454
  O           20.153458       21.961877       22.559456
  S           19.706781       21.501718       23.853030
  O           20.318179       21.962813       25.084405
  C           17.942861       21.734925       23.958869
  C           17.385221       20.368479       24.348435
  C           18.232896       19.336404       23.604077
  C           19.674562       19.718852       23.860070
  H           17.708241       22.508928       24.695328
  H           17.578790       22.035953       22.973458
  H           16.324450       20.281013       24.090336
  H           17.484490       20.215476       25.430117
  H           18.010054       19.393383       22.525423
  H           18.020585       18.318245       23.933282
  H           20.359497       19.336131       23.096860
  H           19.999703       19.383714       24.850053
  O           28.611348        0.999996        9.814175
  S           27.872086        2.149463       10.279812
  O           26.425692        2.215068       10.200190
  C           28.377568        2.508837       11.950842
  C           28.784892        3.979789       11.933896
  C           29.473930        4.213753       10.589170
  C           28.555476        3.622003        9.542043
  H           27.555780        2.309369       12.644655
  H           29.232214        1.872370       12.193101
  H           29.445660        4.221521       12.773212
  H           27.895686        4.617846       12.008027
  H           30.444890        3.690688       10.582811
  H           29.666049        5.271944       10.406349
  H           29.076848        3.360700        8.615765
  H           27.725010        4.299667        9.320234
  O           37.005788       13.997475        3.929965
  S           36.803179       12.728063        3.272590
  O           36.657408       12.623977        1.833627
  C           38.077213       11.602891        3.809085
  C           37.330783       10.371394        4.315205
  C           36.074139       10.893673        5.012249
  C           35.442954       11.877327        4.050880
  H           38.751259       11.372764        2.978902
  H           38.634022       12.079421        4.619691
  H           37.952083        9.778360        4.994763
  H           37.044862        9.731040        3.471703
  H           36.362789       11.405771        5.945436
  H           35.387008       10.088082        5.274879
  H           34.792505       12.603206        4.548991
  H           34.883667       11.356479        3.267289
  O           32.314672       24.775775       17.177800
  S           31.982564       25.605885       18.311476
  O           32.091701       25.122642       19.674291
  C           32.873807       27.142824       18.168278
  C           31.808469       28.230370       18.278723
  C           30.577988       27.694904       17.545925
  C           30.354898       26.294621       18.074735
  H           33.629898       27.215148       18.955422
  H           33.354176       27.168502       17.187061
  H           32.155401       29.175382       17.847342
  H           31.560742       28.409520       19.332211
  H           30.785091       27.664036       16.463079
  H           29.702989       28.328345       17.698331
  H           29.785881       25.663578       17.384732
  H           29.857953       26.317795       19.049727
  O           17.388405        5.323097       19.049182
  S           18.403659        4.297351       19.090487
  O           18.171119        3.012811       19.721820
  C           19.004980        4.028846       17.434190
  C           20.520148        4.185358       17.532529
  C           20.765961        5.313852       18.534466
  C           19.911112        4.992873       19.741283
  H           18.708011        3.037005       17.081259
  H           18.576687        4.798078       16.786851
  H           20.963331        4.409021       16.556279
  H           20.971391        3.257455       17.904919
  H           20.449338        6.271303       18.087884
  H           21.820498        5.403881       18.798937
  H           19.677599        5.875143       20.345576
  H           20.386268        4.231152       20.367468
  O           12.579830       13.251959       13.711816
  S           13.882293       13.306839       13.091189
  O           14.068713       13.054534       11.675460
  C           14.642716       14.864215       13.507529
  C           16.000948       14.496372       14.098964
  C           15.777712       13.222219       14.914133
  C           15.012086       12.279141       14.011570
  H           14.729822       15.491750       12.615839
  H           14.016736       15.361084       14.252828
  H           16.400233       15.306682       14.718213
  H           16.720631       14.298005       13.295217
  H           15.178538       13.463408       15.808124
  H           16.717174       12.783286       15.253026
  H           14.450321       11.520401       14.565496
  H           15.680680       11.793389       13.293847
  O           27.220329       21.241283       39.939896
  S           25.817037       21.565094       39.837331
  O           24.794472       20.754449       40.469719
  C           25.591333       23.265276       40.322552
  C           24.840818       23.912352       39.161553
  C           25.406386       23.283617       37.887730
  C           25.392688       21.788243       38.119824
  H           25.035128       23.318490       41.262926
  H           26.577940       23.718305       40.447341
  H           24.963431       25.000683       39.163025
  H           23.768828       23.692043       39.236392
  H           26.440698       23.635717       37.737315
  H           24.829950       23.560445       37.003882
  H           26.111012       21.252329       37.491408
  H           24.389814       21.376685       37.968285
  O           34.566734       17.952073        3.962513
  S           33.221913       17.716377        4.432093
  O           32.500161       18.699057        5.217021
  C           32.214760       17.229699        3.044366
  C           31.565578       15.914718        3.467790
  C           32.623446       15.159166        4.272685
  C           33.165427       16.149165        5.280831
  H           31.478962       18.007674        2.821079
  H           32.870387       17.079071        2.183166
  H           31.229910       15.336783        2.600139
  H           30.692359       16.112537        4.101554
  H           33.427727       14.828011        3.594549
  H           32.212672       14.272613        4.757851
  H           34.166623       15.888955        5.638596
  H           32.484924       16.255393        6.131555
  O           21.192017       17.983263       12.201727
  S           20.124806       17.353778       12.942950
  O           20.130262       17.290840       14.391642
  C           18.573949       18.043280       12.398498
  C           17.719638       16.839395       12.010280
  C           18.671876       15.835547       11.359641
  C           19.853193       15.713803       12.297654
  H           18.123073       18.636531       13.199288
  H           18.768605       18.677160       11.529876
  H           16.909848       17.126024       11.330879
  H           17.269036       16.392867       12.905193
  H           19.000782       16.227683       10.382681
  H           18.193191       14.870819       11.185686
  H           20.760617       15.361003       11.797441
  H           19.617950       15.058295       13.142090
  O            2.482021       25.105378       21.846903
  S            2.905419       26.246010       21.069541
  O            3.256492       26.131090       19.667313
  C            1.696084       27.541467       21.260067
  C            2.492255       28.763731       21.709602
  C            3.579690       28.240010       22.648219
  C            4.228793       27.078831       21.926742
  H            1.169827       27.708052       20.315714
  H            0.986616       27.234946       22.032660
  H            1.850118       29.498734       22.206524
  H            2.956697       29.250393       20.843142
  H            3.113860       27.892827       23.585698
  H            4.305722       29.012712       22.904947
  H            4.724796       26.378120       22.605776
  H            4.941694       27.432687       21.175305
  O           24.280651       18.400144       17.318397
  S           25.102544       19.502426       16.877869
  O           25.652956       19.561212       15.537611
  C           24.238270       21.023976       17.216862
  C           25.221829       21.866892       18.024330
  C           25.964600       20.892378       18.938887
  C           26.420844       19.754263       18.051906
  H           23.942676       21.506486       16.280749
  H           23.351512       20.787742       17.810204
  H           24.705638       22.644353       18.597567
  H           25.936136       22.358955       17.352809
  H           25.271193       20.518569       19.710802
  H           26.803402       21.368184       19.448906
  H           26.601350       18.827600       18.605813
  H           27.318929       20.030094       17.490246
  O           21.485681       23.321975       16.392053
  S           21.170157       23.672565       15.027453
  O           19.889315       23.349963       14.429062
  C           21.495212       25.410220       14.799651
  C           22.424711       25.484323       13.591165
  C           23.359629       24.279427       13.700491
  C           22.469012       23.083157       13.957278
  H           20.558038       25.951705       14.641539
  H           21.994635       25.784358       15.696756
  H           22.982011       26.426961       13.572432
  H           21.842987       25.416132       12.663669
  H           24.048292       24.429959       14.548715
  H           23.964033       24.147493       12.801942
  H           22.996100       22.254864       14.441230
  H           22.003865       22.733879       13.030055
  O           23.918188       38.014870       37.423150
  S           22.512843       37.898183       37.113328
  O           21.935239       36.661319       36.624206
  C           21.574239       38.459546       38.520770
  C           20.625109       39.518981       37.967010
  C           21.413782       40.279277       36.900358
  C           22.043901       39.224197       36.017207
  H           21.043782       37.620097       38.979508
  H           22.268900       38.899219       39.240724
  H           20.267170       40.187575       38.757176
  H           19.752009       39.039481       37.507581
  H           22.196578       40.883215       37.389122
  H           20.779545       40.958289       36.328705
  H           22.926669       39.587633       35.481732
  H           21.316860       38.824740       35.303102
  O           16.252219       25.704618       29.746325
  S           15.095065       25.240332       30.474358
  O           15.183237       24.793947       31.851190
  C           13.813167       26.472026       30.345247
  C           12.592106       25.719778       29.822723
  C           13.122586       24.693550       28.821101
  C           14.265896       23.986060       29.515723
  H           13.634978       26.934617       31.320316
  H           14.138667       27.229293       29.627754
  H           11.871027       26.401059       29.358609
  H           12.086949       25.202307       30.647551
  H           13.489505       25.218542       27.923240
  H           12.348319       23.993947       28.503035
  H           14.973865       23.530604       28.816124
  H           13.893400       23.227250       30.211104
  O            7.208155        7.076648       21.507407
  S            8.122161        7.760458       22.391487
  O            8.559022        7.176112       23.644640
  C            9.553943        8.256004       21.452639
  C            9.696976        9.753878       21.709184
  C            8.274704       10.312021       21.767664
  C            7.509709        9.405142       22.707107
  H           10.431869        7.689511       21.776414
  H            9.353572        8.060704       20.396273
  H           10.288858       10.239112       20.925780
  H           10.199679        9.925436       22.668953
  H            7.829412       10.277706       20.759231
  H            8.255768       11.349801       22.103453
  H            6.428261        9.432627       22.540331
  H            7.728890        9.647448       23.751783
  O           27.269574       36.372003       13.600059
  S           26.014297       37.082468       13.535878
  O           25.699001       37.985949       12.446378
  C           24.687764       35.905566       13.715355
  C           23.832944       36.443546       14.859803
  C           24.809026       37.040012       15.874343
  C           25.742222       37.929190       15.081432
  H           24.129165       35.821098       12.778695
  H           25.123107       34.938201       13.977808
  H           23.219532       35.653723       15.306352
  H           23.160084       37.227564       14.491189
  H           25.376524       36.225319       16.354573
  H           24.294333       37.593995       16.660660
  H           26.700951       38.096027       15.582534
  H           25.270734       38.890921       14.855882
  O           24.703241       29.839735       12.404068
  S           25.575324       29.103822       11.519475
  O           26.902983       29.578752       11.181151
  C           25.692444       27.425197       12.107270
  C           25.326324       26.558156       10.905565
  C           24.213379       27.303331       10.168091
  C           24.698197       28.728496       10.012996
  H           26.702216       27.224567       12.476876
  H           24.967683       27.295115       12.914736
  H           25.004982       25.558450       11.216736
  H           26.194298       26.444597       10.244486
  H           23.294243       27.278406       10.777163
  H           23.984731       26.847310        9.203796
  H           23.881680       29.444351        9.875331
  H           25.408071       28.813606        9.184180
  O           15.321600       36.704312       35.994673
  S           16.283785       35.686691       36.345740
  O           16.283178       34.380469       35.716070
  C           17.918293       36.387372       36.225618
  C           18.568304       36.110913       37.578746
  C           17.463267       36.277662       38.622244
  C           16.287099       35.471200       38.115839
  H           18.465094       35.929169       35.396427
  H           17.817121       37.462198       36.056165
  H           19.406202       36.790797       37.766324
  H           18.951992       35.083717       37.609579
  H           17.190349       37.343792       38.694922
  H           17.782211       35.948709       39.612277
  H           15.330401       35.806723       38.528456
  H           16.424695       34.404929       38.321349
  O           30.297392       20.805714       26.818174
  S           29.841012       21.759554       25.835064
  O           29.858922       21.465853       24.415163
  C           28.207908       22.307385       26.293161
  C           28.295529       23.830934       26.325135
  C           29.676915       24.164711       26.889196
  C           30.660548       23.319279       26.109509
  H           27.471747       21.944896       25.569856
  H           27.981016       21.910902       27.285895
  H           27.495440       24.264873       26.934278
  H           28.205071       24.234929       25.309308
  H           29.707443       23.895172       27.958222
  H           29.905842       25.228292       26.808644
  H           31.599010       23.151431       26.647297
  H           30.869567       23.762508       25.130755
  O           32.581270       28.054948       33.119118
  S           32.573551       28.606942       31.785010
  O           33.776812       28.683175       30.979373
  C           31.296142       27.795047       30.843706
  C           30.439313       28.925936       30.280826
  C           30.376230       29.994301       31.372805
  C           31.804279       30.215210       31.822332
  H           31.741248       27.176047       30.059347
  H           30.714459       27.170253       31.525965
  H           29.440394       28.571615       30.004931
  H           30.910365       29.344448       29.382908
  H           29.766807       29.619894       32.212343
  H           29.917706       30.917646       31.016027
  H           31.874110       30.632392       32.831878
  H           32.342277       30.858219       31.118629
  O           19.541597       39.950699       31.246898
  S           20.444145       39.760950       32.357755
  O           20.219893       40.390628       33.644580
  C           20.681479       38.011373       32.601994
  C           22.194439       37.810219       32.582291
  C           22.736800       38.773566       31.526068
  C           22.108492       40.117233       31.826050
  H           20.229140       37.697704       33.547246
  H           20.209049       37.483555       31.769878
  H           22.456909       36.771742       32.353872
  H           22.620494       38.059798       33.561826
  H           22.430402       38.425306       30.525451
  H           23.826411       38.825076       31.540066
  H           22.081933       40.779791       30.955182
  H           22.623230       40.615201       32.653802
  O           15.890880       40.546005       25.929227
  S           15.919928       39.649667       24.797709
  O           16.416313       40.067234       23.500812
  C           16.755104       38.151756       25.283245
  C           15.787213       37.025848       24.929101
  C           14.387174       37.556957       25.238313
  C           14.306069       38.920918       24.587748
  H           17.710032       38.064749       24.756896
  H           16.926637       38.191030       26.361779
  H           16.007775       36.115495       25.496648
  H           15.862634       36.786081       23.861335
  H           14.266753       37.648855       26.330766
  H           13.606035       36.888446       24.873600
  H           13.549243       39.566875       25.043879
  H           14.117671       38.832652       23.513125
  O           28.877694       22.322308       29.252203
  S           29.741929       21.224354       29.615787
  O           29.498574       19.871292       29.154591
  C           31.422684       21.674916       29.229710
  C           32.199051       21.456651       30.525671
  C           31.264475       21.885074       31.657405
  C           29.942273       21.200140       31.387503
  H           31.798646       21.059711       28.407107
  H           31.435873       22.729186       28.942410
  H           33.132223       22.029903       30.534264
  H           32.452286       20.395364       30.638989
  H           31.138205       22.980361       31.629082
  H           31.662547       21.622360       32.638537
  H           29.094914       21.707024       31.859891
  H           29.970560       20.153082       31.705262
  O           12.913505       36.443530       18.930525
  S           12.179359       36.044431       17.753092
  O           12.840475       35.779517       16.489982
  C           11.150799       34.650486       18.172594
  C            9.743127       35.052507       17.740459
  C            9.613381       36.543810       18.051878
  C           10.849285       37.198946       17.474352
  H           11.506058       33.751809       17.660081
  H           11.197818       34.505193       19.254666
  H            8.981124       34.463678       18.262122
  H            9.618709       34.889111       16.662906
  H            9.583643       36.685187       19.145280
  H            8.698949       36.970461       17.637290
  H           11.087278       38.155348       17.950539
  H           10.750604       37.338741       16.393232
  O           10.759344       11.399201        4.600926
  S           11.369922       12.557259        5.209774
  O           11.945950       13.626495        4.417546
  C           10.218738       13.256315        6.377291
  C           10.993412       13.351416        7.689059
  C           11.876274       12.104651        7.751753
  C           12.573183       12.019972        6.411101
  H            9.869498       14.231226        6.025042
  H            9.373228       12.570899        6.474854
  H           10.317894       13.411033        8.549072
  H           11.623533       14.249328        7.690255
  H           11.240446       11.216884        7.906649
  H           12.589814       12.149420        8.575741
  H           12.908146       11.006758        6.167590
  H           13.421096       12.710648        6.365177
  O           18.049908       41.090785       30.021799
  S           17.355509       40.289052       31.001408
  O           17.709208       40.319078       32.407358
  C           15.605468       40.584822       30.837467
  C           14.983291       39.200586       30.674108
  C           15.963420       38.392647       29.823003
  C           17.324878       38.592650       30.452790
  H           15.228058       41.112824       31.717964
  H           15.444239       41.190733       29.942437
  H           13.995151       39.259002       30.205422
  H           14.865667       38.722319       31.654274
  H           15.959464       38.786060       28.792658
  H           15.691221       37.337275       29.776106
  H           18.148413       38.417964       29.753236
  H           17.447090       37.955243       31.334196
  O           25.825918       26.140213       15.147674
  S           26.066873       26.878555       16.364799
  O           27.007048       27.981164       16.419812
  C           24.499473       27.420072       17.018264
  C           24.477819       26.920992       18.460606
  C           25.155925       25.550683       18.445623
  C           26.447066       25.733297       17.677634
  H           24.418259       28.508768       16.950102
  H           23.705175       26.950068       16.433125
  H           23.455055       26.860756       18.847678
  H           25.044072       27.605095       19.104547
  H           24.503638       24.828404       17.926745
  H           25.335208       25.171705       19.452764
  H           26.825934       24.798906       17.251638
  H           27.216622       26.191451       18.306902
  O            8.020134       14.453486       29.844113
  S            8.456654       15.601038       29.084393
  O            8.946312       15.479918       27.724884
  C            7.169178       16.832864       29.129246
  C            7.854130       18.104038       29.624078
  C            8.871990       17.656488       30.673583
  C            9.646646       16.519061       30.044004
  H            6.728182       16.953901       28.135580
  H            6.405579       16.502626       29.837808
  H            7.130036       18.812304       30.040667
  H            8.373861       18.599272       28.794667
  H            8.336835       17.301713       31.570323
  H            9.529019       18.471582       30.980234
  H           10.110712       15.858355       30.783064
  H           10.409174       16.897124       29.355731
  O           33.947841       37.104383       40.753638
  S           33.140305       38.247536       40.399113
  O           31.920814       38.575946       41.111636
  C           34.188818       39.688092       40.349932
  C           33.952797       40.303098       38.972993
  C           33.788996       39.129607       38.006615
  C           32.788465       38.195314       38.651778
  H           33.929806       40.371106       41.164122
  H           35.225594       39.359201       40.455405
  H           34.782023       40.955260       38.678767
  H           33.035317       40.904317       38.981125
  H           34.760198       38.621389       37.884619
  H           33.458866       39.455513       37.019245
  H           32.872198       37.165336       38.290901
  H           31.765060       38.555619       38.507134
  O            5.055780       23.266946       13.582059
  S            6.072473       23.217013       12.558124
  O            7.058278       22.154807       12.507046
  C            5.280483       23.349879       10.966867
  C            5.990579       24.505125       10.266103
  C            6.280106       25.544749       11.349227
  C            6.915682       24.786938       12.494637
  H            5.372884       22.407253       10.419675
  H            4.225555       23.584247       11.129337
  H            5.376916       24.922087        9.460460
  H            6.934122       24.157197        9.827957
  H            5.331401       26.002543       11.676006
  H            6.926724       26.344861       10.986176
  H            6.810306       25.299566       13.455995
  H            7.973597       24.589030       12.295265
  O           14.210039       23.636126        7.263615
  S           13.744073       22.978127        6.065904
  O           14.205654       23.367607        4.747591
  C           13.966746       21.220612        6.262265
  C           12.596113       20.613106        5.975558
  C           11.570843       21.581697        6.565858
  C           11.961037       22.956161        6.067063
  H           14.737536       20.859013        5.575513
  H           14.268100       21.028167        7.294908
  H           12.503117       19.612487        6.411004
  H           12.441001       20.527299        4.893025
  H           11.629207       21.545820        7.666634
  H           10.550650       21.322604        6.279194
  H           11.584208       23.763618        6.702762
  H           11.625336       23.109677        5.036608
  O           14.122911       19.756207       40.511754
  S           15.410636       20.181741       40.016493
  O           16.107474       21.324689       40.573974
  C           16.508704       18.777731       40.014585
  C           17.058297       18.706509       38.592342
  C           15.902146       19.096056       37.670729
  C           15.322526       20.370363       38.245516
  H           17.295856       18.913499       40.761886
  H           15.922468       17.885805       40.249097
  H           17.439590       17.706322       38.360518
  H           17.882621       19.419962       38.470794
  H           15.144074       18.295040       37.680726
  H           16.228919       19.230590       36.638634
  H           14.283614       20.539862       37.945461
  H           15.932368       21.237216       37.972093
  O           20.680342       32.392337       20.804951
  S           21.087511       31.746883       22.030595
  O           20.616437       32.194964       23.326748
  C           20.784489       29.997161       21.876811
  C           22.117512       29.333259       22.211752
  C           23.201141       30.234785       21.619470
  C           22.866993       31.639822       22.071593
  H           19.982208       29.692267       22.554959
  H           20.496952       29.790276       20.843021
  H           22.171565       28.317462       21.805876
  H           22.244462       29.270705       23.299534
  H           23.165320       30.170710       20.519011
  H           24.201066       29.935485       21.936755
  H           23.296304       32.410129       21.423195
  H           23.186994       31.806136       23.105052
  O           24.304143       26.835647       29.660461
  S           25.685186       26.797212       30.079797
  O           26.727287       26.241897       29.238161
  C           26.166496       28.434496       30.594230
  C           26.735417       28.257046       31.999484
  C           25.873218       27.190010       32.674649
  C           25.785663       26.042296       31.692158
  H           26.898141       28.849704       29.895090
  H           25.272395       29.062500       30.614093
  H           26.722496       29.199001       32.558103
  H           27.774591       27.910112       31.944212
  H           24.868942       27.603139       32.867400
  H           26.290184       26.871873       33.631220
  H           24.909532       25.406804       31.855389
  H           26.694469       25.432810       31.718564
  O            9.236772       39.918955        7.701854
  S           10.576207       39.818532        8.231408
  O           10.918426       40.312571        9.551072
  C           11.116344       38.125995        8.087988
  C           12.447354       38.196547        7.344123
  C           12.294406       39.307943        6.305275
  C           11.724892       40.497003        7.048234
  H           11.213924       37.675850        9.080132
  H           10.373164       37.579158        7.502452
  H           12.695146       37.237985        6.875873
  H           13.255209       38.452223        8.040758
  H           11.592747       38.977841        5.520987
  H           13.242100       39.549761        5.822056
  H           11.203216       41.200440        6.391629
  H           12.506472       41.022272        7.606198
  O           19.337791       13.214892       14.787117
  S           20.345658       13.740301       15.677481
  O           20.082255       14.862254       16.557560
  C           21.010343       12.393831       16.637801
  C           22.521211       12.470156       16.434450
  C           22.732891       12.883401       14.977666
  C           21.829701       14.075657       14.747506
  H           20.722686       12.501296       17.687660
  H           20.611567       11.458976       16.236274
  H           23.003521       11.512183       16.656183
  H           22.952964       13.228705       17.098900
  H           22.438714       12.050321       14.317487
  H           23.776636       13.120796       14.767094
  H           21.576877       14.222072       13.692640
  H           22.276171       14.989980       15.150962
  O           19.591664       11.995867       31.445210
  S           20.390892       12.450934       30.332219
  O           20.625173       13.859788       30.081333
  C           21.957270       11.601455       30.375187
  C           22.109436       10.980594       28.989085
  C           20.711820       10.518813       28.575286
  C           19.791925       11.692357       28.833720
  H           22.761443       12.304747       30.610105
  H           21.904087       10.826414       31.143745
  H           22.822412       10.149293       28.999267
  H           22.474761       11.731618       28.277888
  H           20.414595        9.658264       29.197790
  H           20.677865       10.201083       27.532216
  H           18.746901       11.394465       28.965191
  H           19.866875       12.433815       28.032020
  O            4.205856       30.401033       19.297831
  S            3.107172       29.980425       18.460823
  O            2.289259       28.829100       18.789713
  C            2.045255       31.382807       18.173321
  C            1.909490       31.472430       16.655614
  C            3.277163       31.096947       16.084401
  C            3.681928       29.815814       16.780865
  H            1.083023       31.235886       18.672343
  H            2.539400       32.272305       18.571838
  H            1.602001       32.475121       16.340079
  H            1.154418       30.759536       16.302134
  H            3.998927       31.898807       16.313480
  H            3.248836       30.975883       15.000593
  H            4.764144       29.651818       16.777357
  H            3.175714       28.951880       16.338750
  O           31.630571       17.012680       14.428532
  S           30.443911       17.375244       13.690300
  O           30.329794       17.149408       12.262478
  C           29.029393       16.659713       14.505256
  C           28.075162       17.827538       14.740900
  C           28.953370       19.028611       15.093000
  C           30.036605       19.076245       14.037286
  H           28.588922       15.878135       13.879459
  H           29.362294       16.233062       15.454649
  H           27.358760       17.603978       15.538577
  H           27.508261       18.041296       13.826443
  H           29.399862       18.872324       16.089303
  H           28.381999       19.957287       15.127581
  H           30.933536       19.608159       14.369975
  H           29.662900       19.524832       13.111427
  O           37.336771       25.808527       17.576727
  S           36.552593       26.225454       18.715075
  O           35.802249       27.466293       18.716707
  C           35.464973       24.889716       19.173210
  C           35.731542       24.653018       20.657398
  C           37.233785       24.856649       20.856395
  C           37.569830       26.167259       20.178476
  H           34.425293       25.164135       18.972562
  H           35.738139       24.010253       18.584886
  H           35.416030       23.650515       20.965523
  H           35.177846       25.382889       21.260730
  H           37.779506       24.028230       20.374410
  H           37.509327       24.865618       21.911903
  H           38.624555       26.243311       19.895860
  H           37.294082       27.017783       20.809880
  O           20.782565       23.806865       11.548285
  S           21.924345       23.580890       10.693958
  O           23.121695       24.394026       10.782638
  C           22.381775       21.861636       10.803157
  C           22.413835       21.367696        9.359240
  C           21.259272       22.070637        8.644638
  C           21.383820       23.537528        8.995237
  H           23.349578       21.759816       11.302646
  H           21.610869       21.339142       11.374911
  H           22.316939       20.278023        9.307040
  H           23.363733       21.646427        8.886691
  H           20.302500       21.669918        9.019352
  H           21.286688       21.909439        7.566044
  H           20.439158       24.081538        8.896412
  H           22.154755       24.022172        8.387883
  O           14.805382       30.043972       32.944003
  S           13.416384       30.324656       33.220593
  O           12.953014       31.660451       33.542524
  C           12.430664       29.675307       31.885040
  C           11.389749       28.784309       32.557735
  C           12.106641       28.098204       33.720974
  C           12.829682       29.196242       34.470457
  H           11.978180       30.493758       31.317681
  H           13.082629       29.087141       31.234500
  H           10.972721       28.055469       31.854614
  H           10.563633       29.394687       32.942797
  H           12.831570       27.369272       33.321554
  H           11.413718       27.557034       34.366801
  H           13.676072       28.826172       35.057630
  H           12.141833       29.746842       35.119922
  O           16.498612       36.364675        6.079779
  S           17.175843       35.912709        4.887435
  O           16.486496       35.775063        3.619147
  C           18.632293       36.912422        4.650102
  C           19.780721       35.915187        4.521503
  C           19.471454       34.783232        5.501723
  C           18.033013       34.390187        5.243648
  H           18.519142       37.538530        3.760335
  H           18.761985       37.541620        5.534121
  H           20.745317       36.385670        4.739906
  H           19.821430       35.517081        3.500154
  H           19.584748       35.155458        6.533718
  H           20.149618       33.937757        5.377765
  H           17.564909       33.897219        6.101530
  H           17.953823       33.748776        4.360234
  O           10.122739       32.164510       33.175321
  S            9.097046       31.194702       33.478680
  O            9.239710       30.240291       34.561013
  C            7.544540       32.050982       33.661738
  C            6.586102       31.341726       32.708717
  C            7.408802       30.978411       31.472203
  C            8.666414       30.314048       31.989148
  H            7.210005       32.007138       34.702249
  H            7.691252       33.091375       33.361305
  H            5.732609       31.978473       32.452587
  H            6.198873       30.427481       33.175096
  H            7.663895       31.899738       30.922217
  H            6.858675       30.327285       30.791397
  H            9.498134       30.364248       31.279344
  H            8.475735       29.271311       32.261988
  O           27.656461       12.286295       31.384977
  S           27.359482       10.894023       31.625775
  O           28.357379        9.855987       31.454363
  C           26.637144       10.741519       33.248110
  C           25.326276        9.990790       33.029179
  C           24.758422       10.505533       31.706159
  C           25.897009       10.441684       30.711301
  H           27.319380       10.207817       33.916105
  H           26.448925       11.746586       33.633615
  H           24.628997       10.153432       33.857943
  H           25.517290        8.913248       32.953576
  H           24.424542       11.548678       31.835670
  H           23.899094        9.920987       31.374556
  H           25.765152       11.126217       29.867424
  H           26.037966        9.421323       30.341037
  O            5.929948       18.775405       15.328741
  S            5.455891       18.030678       14.186265
  O            6.339670       17.199920       13.391611
  C            4.045217       17.062992       14.686846
  C            2.942539       17.428463       13.696678
  C            3.103917       18.922470       13.414370
  C            4.569189       19.130737       13.098455
  H            4.291834       15.997529       14.665198
  H            3.769849       17.360913       15.701546
  H            1.950538       17.199005       14.100142
  H            3.069081       16.862002       12.765866
  H            2.823923       19.494481       14.314818
  H            2.463134       19.256097       12.596940
  H            4.900048       20.160270       13.267854
  H            4.794734       18.834628       12.069112
  O           25.539127       17.751528       30.370054
  S           26.142425       16.441949       30.294994
  O           27.561177       16.263580       30.054102
  C           25.681358       15.521886       31.750295
  C           25.081985       14.220834       31.223118
  C           24.298938       14.594005       29.963999
  C           25.232085       15.444933       29.130117
  H           26.557342       15.353631       32.383417
  H           24.932575       16.100577       32.296776
  H           24.439555       13.744393       31.971307
  H           25.881230       13.515503       30.964241
  H           23.407032       15.176198       30.250281
  H           23.958749       13.713252       29.417515
  H           24.702534       16.094364       28.425905
  H           25.952528       14.823074       28.589420
  O           25.169861       29.727379       26.471234
  S           24.275586       30.388231       25.550285
  O           24.296902       30.110061       24.127306
  C           22.607586       30.206129       26.151630
  C           22.050585       31.626033       26.210979
  C           23.206312       32.516362       26.668591
  C           24.385237       32.151440       25.792710
  H           22.033959       29.558416       25.482362
  H           22.651253       29.764449       27.150234
  H           21.195962       31.692245       26.892694
  H           21.714959       31.941020       25.215269
  H           23.435802       32.298964       27.725224
  H           22.960580       33.576616       26.593911
  H           25.348715       32.400257       26.248671
  H           24.306974       32.628231       24.810546
  O           30.436936        9.908066       38.670955
  S           31.876794        9.829841       38.598214
  O           32.714921       10.010282       39.767694
  C           32.321015        8.300889       37.796980
  C           33.244938        8.707455       36.652004
  C           32.686617       10.020328       36.102057
  C           32.456228       10.910792       37.303803
  H           32.807587        7.628949       38.509893
  H           31.407979        7.838909       37.413391
  H           33.288953        7.932644       35.879198
  H           34.262609        8.868940       37.028260
  H           31.731665        9.821499       35.587339
  H           33.362283       10.482191       35.380768
  H           31.713559       11.693321       37.118892
  H           33.393567       11.363363       37.642439
  O           35.809486       21.465064       35.330497
  S           34.789224       22.257953       35.974696
  O           33.376495       21.996281       35.778674
  C           35.132071       22.309660       37.723062
  C           35.155602       23.793921       38.078471
  C           35.807539       24.504075       36.891685
  C           35.103227       23.984304       35.657188
  H           34.364622       21.758689       38.274381
  H           36.111090       21.854617       37.892348
  H           35.705860       23.973897       39.008162
  H           34.132274       24.165379       38.213076
  H           36.878686       24.243684       36.856466
  H           35.732533       25.589397       36.972616
  H           35.704046       24.087170       34.748048
  H           34.136526       24.478858       35.519321
  O           25.159778       17.268462        2.864346
  S           23.810571       17.013143        3.310499
  O           23.124319       17.902975        4.226991
  C           22.781457       16.748774        1.879404
  C           22.093099       15.409343        2.128377
  C           23.130577       14.520232        2.814613
  C           23.708774       15.348466        3.941519
  H           22.069552       17.571945        1.769495
  H           23.427593       16.695325        0.999716
  H           21.734877       14.963989        1.194119
  H           21.229821       15.546815        2.791063
  H           23.920501       14.258787        2.090689
  H           22.694391       13.589499        3.180097
  H           24.703031       15.011858        4.251761
  H           23.036315       15.360112        4.805095
  O           24.123423       18.342476        8.329027
  S           22.812018       17.752396        8.200096
  O           21.610677       18.561193        8.127115
  C           22.833310       16.620475        6.823397
  C           22.318500       15.299368        7.388682
  C           22.888299       15.192516        8.803501
  C           22.598320       16.519576        9.470603
  H           22.206764       17.001755        6.011877
  H           23.866028       16.519619        6.480584
  H           22.623699       14.451801        6.765799
  H           21.222493       15.310061        7.432890
  H           23.977005       15.026134        8.744891
  H           22.454702       14.358725        9.357474
  H           23.271891       16.733100       10.306551
  H           21.559262       16.568905        9.811230
  O            3.562780       29.471213       25.478256
  S            2.987778       28.757076       26.593595
  O            1.621673       28.980558       27.025467
  C            3.236181       27.010874       26.336547
  C            3.917341       26.515935       27.609715
  C            4.874786       27.628239       28.038526
  C            4.068247       28.908280       28.004065
  H            2.277657       26.516311       26.154505
  H            3.891313       26.883199       25.471271
  H            4.446003       25.571996       27.439434
  H            3.170832       26.349149       28.395976
  H            5.709880       27.685414       27.320369
  H            5.299076       27.444697       29.026650
  H            4.690773       29.802045       27.895689
  H            3.440636       29.000891       28.896044
  O            9.740080       21.365744        4.181732
  S            9.832934       22.579874        3.405932
  O           11.099839       23.072745        2.901223
  C            8.670990       22.480730        2.057950
  C            7.831391       23.751027        2.164349
  C            7.637177       24.007260        3.659149
  C            9.011819       23.897854        4.282516
  H            9.203705       22.408880        1.105294
  H            8.051558       21.592721        2.206086
  H            6.872866       23.641509        1.645953
  H            8.366487       24.595277        1.712448
  H            6.968083       23.235858        4.075867
  H            7.182523       24.979990        3.851987
  H            8.978281       23.663140        5.351106
  H            9.589075       24.814103        4.123256
  O           13.682260       35.784981       33.168813
  S           13.406083       35.668677       31.756439
  O           13.687531       36.746759       30.828416
  C           14.162715       34.171920       31.152926
  C           13.036797       33.411393       30.457364
  C           11.781409       33.650761       31.296710
  C           11.716560       35.144214       31.532494
  H           14.987021       34.412644       30.475378
  H           14.538369       33.609454       32.011248
  H           13.267876       32.344202       30.372472
  H           12.884176       33.806571       29.445514
  H           11.879842       33.117956       32.257350
  H           10.882011       33.280449       30.802692
  H           11.128809       35.411505       32.416351
  H           11.320234       35.663410       30.654165
  O            4.328543        3.809559       16.782648
  S            3.423434        4.894288       16.484755
  O            2.067816        4.925344       16.998600
  C            4.230844        6.431842       16.886022
  C            4.131590        7.274419       15.617120
  C            4.311381        6.304670       14.448761
  C            3.374963        5.147260       14.720285
  H            3.739698        6.903617       17.742003
  H            5.274487        6.216175       17.127883
  H            4.887129        8.067180       15.603306
  H            3.143553        7.746871       15.554896
  H            5.356067        5.951728       14.427270
  H            4.101208        6.777482       13.488358
  H            3.674588        4.227006       14.208958
  H            2.345920        5.402860       14.448554
  O           20.934742       14.222084       34.921370
  S           20.540813       13.314044       33.870236
  O           20.431649       13.740864       32.488712
  C           21.581997       11.869555       33.950150
  C           20.616997       10.688803       34.017231
  C           19.444449       11.147906       34.884500
  C           19.027186       12.497016       34.340447
  H           22.236103       11.827162       33.074451
  H           22.182670       11.931926       34.860919
  H           21.101947        9.799025       34.432704
  H           20.256009       10.439646       33.011791
  H           19.782807       11.247321       35.929503
  H           18.619921       10.433746       34.869365
  H           18.493635       13.107236       35.076011
  H           18.415469       12.384871       33.439711
  O           28.093697       18.155085       32.350218
  S           28.503521       16.982773       33.086648
  O           28.817241       15.731554       32.424280
  C           29.859520       17.429745       34.153645
  C           29.432569       16.977438       35.547571
  C           27.931015       17.250289       35.640777
  C           27.322670       16.665438       34.384566
  H           30.779720       16.942593       33.818360
  H           29.978509       18.515442       34.117539
  H           29.988233       17.508211       36.327967
  H           29.619967       15.903463       35.669057
  H           27.761262       18.339544       35.674065
  H           27.491668       16.818479       36.541118
  H           26.360935       17.119125       34.125077
  H           27.207825       15.580457       34.472463
  O           31.811141        3.628835       21.430760
  S           30.685375        3.186365       22.219095
  O           30.730556        3.149651       23.667995
  C           29.242147        4.098449       21.707045
  C           28.199123        3.035070       21.373540
  C           28.961807        1.883821       20.717232
  C           30.141442        1.597064       21.620797
  H           28.916114        4.768986       22.507409
  H           29.502702        4.678514       20.818318
  H           27.420671        3.431652       20.713060
  H           27.715735        2.680293       22.292109
  H           29.313817        2.202293       19.721710
  H           28.333986        1.002183       20.580644
  H           30.965731        1.098542       21.101062
  H           29.836641        1.001504       22.487114
  O           35.179221        5.155216       37.392401
  S           35.977154        5.461579       38.556035
  O           35.659011        6.570964       39.433959
  C           36.146870        3.979974       39.532275
  C           37.650123        3.808502       39.734089
  C           38.306619        4.245397       38.424152
  C           37.689930        5.582534       38.074925
  H           35.606530        4.086999       40.477303
  H           35.734534        3.145266       38.960051
  H           37.904226        2.773665       39.987157
  H           37.996292        4.452159       40.552119
  H           38.078871        3.504876       37.639194
  H           39.391914        4.311920       38.512519
  H           37.755981        5.817198       37.007840
  H           38.144002        6.388866       38.659516
  O            6.971671       16.993400       24.259162
  S            7.148734       15.697595       23.647493
  O            6.568345       14.495832       24.214605
  C            6.681329       15.812941       21.931326
  C            7.882120       15.276300       21.156719
  C            9.122546       15.759567       21.908780
  C            8.886828       15.417647       23.364021
  H            5.771604       15.233764       21.748421
  H            6.506358       16.865518       21.695389
  H            7.877611       15.626463       20.118998
  H            7.862943       14.179587       21.144344
  H            9.219582       16.851253       21.785462
  H           10.036281       15.300358       21.528891
  H            9.475014       16.036997       24.048523
  H            9.089494       14.359333       23.556369
  O           37.366784       10.362902       14.926565
  S           36.721035        9.456328       15.846203
  O           37.444808        8.815370       16.926955
  C           35.276134       10.259656       16.512479
  C           34.127387        9.288993       16.251529
  C           34.404305        8.661462       14.885030
  C           35.847643        8.207846       14.919823
  H           35.416739       10.466203       17.577405
  H           35.124636       11.195276       15.968546
  H           33.159149        9.800466       16.271808
  H           34.113383        8.506458       17.020127
  H           34.263958        9.423622       14.100292
  H           33.726169        7.834587       14.669370
  H           36.289530        8.113942       13.922819
  H           35.948588        7.260961       15.459563
  O           22.519178       29.566813        8.010231
  S           21.334933       29.544231        8.835854
  O           21.314803       30.124979       10.164397
  C           19.974765       30.206227        7.893143
  C           18.883140       29.142248        7.971898
  C           19.600580       27.793256        7.914441
  C           20.719776       27.873174        8.929927
  H           19.656593       31.165122        8.312414
  H           20.309198       30.343359        6.861857
  H           18.160244       29.249760        7.156200
  H           18.339220       29.229994        8.920450
  H           20.014584       27.644950        6.903003
  H           18.925708       26.961602        8.121807
  H           21.533276       27.170234        8.724519
  H           20.341234       27.714181        9.944583
  O           37.462459        8.290709        9.328095
  S           36.977050        9.360119        8.488251
  O           36.152438        9.106268        7.322800
  C           36.166931       10.566986        9.519842
  C           36.837573       11.894788        9.177670
  C           38.315955       11.577371        8.950879
  C           38.348000       10.394231        8.007825
  H           35.092054       10.575738        9.317203
  H           36.346845       10.299173       10.563924
  H           36.700954       12.629822        9.978020
  H           36.404854       12.309739        8.259046
  H           38.781587       11.308852        9.913938
  H           38.860518       12.431507        8.545905
  H           39.279287        9.822651        8.071874
  H           38.179500       10.711700        6.973938
  O           33.982400       33.732089       37.248860
  S           34.587236       34.352766       38.403648
  O           33.915690       34.402309       39.687888
  C           36.216521       33.665539       38.627583
  C           37.150453       34.871424       38.686866
  C           36.601679       35.882961       37.680169
  C           35.120930       35.998150       37.970538
  H           36.249977       33.064094       39.540624
  H           36.445025       33.040074       37.761107
  H           38.182787       34.589635       38.453670
  H           37.137596       35.308841       39.692749
  H           36.760190       35.500473       36.657928
  H           37.104158       36.848394       37.754694
  H           34.544466       36.357195       37.112124
  H           34.939532       36.645392       38.834409
  O           23.192692       25.651251        7.320067
  S           23.852828       25.160642        6.133423
  O           24.964982       25.866348        5.526963
  C           24.323583       23.463590        6.408022
  C           23.729882       22.692490        5.232087
  C           22.375123       23.338980        4.941436
  C           22.629757       24.829429        4.878794
  H           25.412889       23.377769        6.458496
  H           23.880075       23.134836        7.351113
  H           23.627038       21.626963        5.463551
  H           24.379277       22.787146        4.353096
  H           21.677924       23.106462        5.763779
  H           21.933403       22.965494        4.016508
  H           21.732077       25.424259        5.074877
  H           23.058109       25.114178        3.912599
  O           30.918844       41.222009       35.769321
  S           29.917244       40.243840       35.416359
  O           29.298524       40.218192       34.105165
  C           30.554439       38.621347       35.788515
  C           29.494834       37.973496       36.675886
  C           28.956095       39.086628       37.575051
  C           28.635813       40.245786       36.656372
  H           30.725978       38.062315       34.864092
  H           31.495216       38.740586       36.331580
  H           29.913867       37.148688       37.262062
  H           28.681270       37.571919       36.059324
  H           29.735929       39.378670       38.298217
  H           28.080745       38.767005       38.142240
  H           28.626821       41.210351       37.173705
  H           27.679374       40.090464       36.147257
  O           17.395178        4.407643        7.054537
  S           16.500358        3.281456        6.929632
  O           15.741234        2.776088        8.057033
  C           15.386645        3.590944        5.572848
  C           15.510498        2.365568        4.671175
  C           16.984326        1.960119        4.706404
  C           17.371573        1.924253        6.168920
  H           14.368647        3.735698        5.945978
  H           15.724142        4.490923        5.052911
  H           15.176484        2.584069        3.651277
  H           14.893819        1.546659        5.061554
  H           17.582281        2.718032        4.173095
  H           17.156223        0.999187        4.219413
  H           18.447917        2.043286        6.328343
  H           17.027617        0.999810        6.643472
  O           12.822407       34.973126       23.933980
  S           11.762447       34.199352       24.535941
  O           11.572488       32.793716       24.234604
  C           11.843670       34.407296       26.304319
  C           10.444301       34.857898       26.714956
  C            9.953453       35.784679       25.602327
  C           10.213036       35.051064       24.304396
  H           12.138538       33.468168       26.781387
  H           12.581021       35.183617       26.523039
  H           10.456048       35.364333       27.685979
  H            9.777039       33.990746       26.793116
  H           10.531240       36.723702       25.630605
  H            8.899227       36.040318       25.717896
  H           10.287883       35.721891       23.442717
  H            9.442353       34.296157       24.119297
  O            8.237591        4.987712        4.222400
  S            8.384691        5.991213        3.194808
  O            8.596071        5.639720        1.803955
  C            7.009791        7.120162        3.304924
  C            7.641982        8.505952        3.404026
  C            8.894715        8.340216        4.264835
  C            9.640989        7.155573        3.690470
  H            6.364594        7.015462        2.427849
  H            6.446854        6.884800        4.211514
  H            6.947095        9.232419        3.838627
  H            7.925325        8.863042        2.406277
  H            8.595159        8.132692        5.305796
  H            9.509866        9.241139        4.270057
  H           10.314091        6.684018        4.413429
  H           10.201935        7.441623        2.795140
  O           23.061194       29.239168       29.281660
  S           21.800191       29.093648       29.969625
  O           21.019745       30.240589       30.391679
  C           20.759494       28.002216       29.019506
  C           20.324028       26.916653       30.000231
  C           21.532061       26.646240       30.897635
  C           22.017065       28.002144       31.362925
  H           19.912612       28.555736       28.603684
  H           21.359313       27.576826       28.211137
  H           19.999856       26.011093       29.476426
  H           19.485066       27.274166       30.609845
  H           22.316912       26.143249       30.308221
  H           21.280789       25.997101       31.737623
  H           23.068812       27.998115       31.666094
  H           21.397669       28.380650       32.182182
  O           14.105574       21.500181       34.400951
  S           13.112064       22.383713       34.963898
  O           13.088040       22.710244       36.376520
  C           13.098064       23.895136       34.019227
  C           11.642517       24.088159       33.602062
  C           11.099901       22.691672       33.296786
  C           11.490204       21.826369       34.475393
  H           13.473283       24.723427       34.627211
  H           13.737381       23.756297       33.143900
  H           11.559679       24.751647       32.734640
  H           11.070553       24.533670       34.425274
  H           11.570861       22.312772       32.374272
  H           10.020345       22.697323       33.139858
  H           11.526983       20.760608       34.228608
  H           10.814085       21.986843       35.321095
  O           20.680706        3.598355       10.693792
  S           20.155405        4.943155       10.706909
  O           20.230446        5.807417        9.544962
  C           18.468326        4.886469       11.279231
  C           18.409088        5.879552       12.436891
  C           19.740341        5.747931       13.177325
  C           20.816136        5.815041       12.115081
  H           17.785215        5.149055       10.466268
  H           18.260106        3.871786       11.627459
  H           17.558827        5.674993       13.096218
  H           18.301237        6.901039       12.051882
  H           19.774594        4.773242       13.692309
  H           19.868051        6.526038       13.931208
  H           21.755127        5.348086       12.428686
  H           21.001810        6.849504       11.809284
  O           30.348403        7.102894        7.092834
  S           28.920474        7.313979        7.060252
  O           27.980823        6.210112        7.095389
  C           28.491404        8.481364        8.337010
  C           27.701778        9.575897        7.623997
  C           28.366778        9.758331        6.259338
  C           28.516835        8.368347        5.680004
  H           27.909311        7.986900        9.120064
  H           29.416857        8.882123        8.757876
  H           27.700170       10.507569        8.199744
  H           26.660128        9.260523        7.486869
  H           29.357965       10.221869        6.397471
  H           27.785059       10.408312        5.604182
  H           29.306827        8.303719        4.925130
  H           27.571196        8.015399        5.256573
  O           17.211547       28.728191       10.774607
  S           18.378596       28.619922       11.617741
  O           19.622024       29.293391       11.296765
  C           17.910778       29.031402       13.287720
  C           18.374824       27.847639       14.132272
  C           18.129033       26.599272       13.284353
  C           18.720823       26.896848       11.923679
  H           18.380455       29.971850       13.590147
  H           16.823031       29.130277       13.322779
  H           17.836602       27.800612       15.084955
  H           19.445655       27.938495       14.352195
  H           17.043078       26.427356       13.197472
  H           18.571315       25.707595       13.730894
  H           18.283549       26.288266       11.125858
  H           19.807938       26.769527       11.932099
  O           22.685324       36.725623       18.783721
  S           22.158692       38.035598       18.481689
  O           22.857495       38.961404       17.611484
  C           20.481595       37.852799       17.906424
  C           19.655112       38.779938       18.793689
  C           20.267843       38.686999       20.191445
  C           21.758518       38.870327       20.005759
  H           20.415261       38.117243       16.847100
  H           20.183424       36.811261       18.049581
  H           18.598086       38.493253       18.796714
  H           19.725229       39.812013       18.428716
  H           20.056981       37.690669       20.614840
  H           19.850987       39.431315       20.871390
  H           22.346227       38.442510       20.824092
  H           22.011565       39.928107       19.882604
  O           38.860142       18.887826       34.148441
  S           38.987610       17.530414       33.673272
  O           40.237756       16.800988       33.761421
  C           37.691587       16.550104       34.405608
  C           36.989627       15.878312       33.228388
  C           36.971886       16.910031       32.100097
  C           38.386037       17.438967       31.997131
  H           38.116508       15.827410       35.108214
  H           37.009830       17.223518       34.930889
  H           35.977718       15.556585       33.496777
  H           37.553142       14.992997       32.909061
  H           36.278922       17.726092       32.365135
  H           36.632062       16.479481       31.157098
  H           38.438528       18.429138       31.533551
  H           39.027543       16.740475       31.450616
  O           39.722582        8.963940       14.535207
  S           39.079466        8.838882       13.248598
  O           37.781568        9.426812       12.979342
  C           40.226184        9.363723       11.989002
  C           40.284818        8.203870       10.998445
  C           40.206207        6.926733       11.835430
  C           39.039455        7.118884       12.779871
  H           39.879672       10.292614       11.526843
  H           41.199998        9.522276       12.458839
  H           41.199999        8.236808       10.397730
  H           39.428593        8.249081       10.314242
  H           41.142341        6.808637       12.406487
  H           40.081656        6.037945       11.215234
  H           39.107469        6.492609       13.674998
  H           38.088073        6.934332       12.271035
  O            6.449861        9.994000       11.113058
  S            7.086649       10.357146        9.869183
  O            6.935576       11.676394        9.286550
  C            8.822729        9.971281        9.988078
  C            9.118195        9.096051        8.772935
  C            7.888631        8.207757        8.580831
  C            6.693248        9.134367        8.632354
  H            9.413999       10.891521        9.995631
  H            8.986120        9.416089       10.915044
  H           10.026350        8.501673        8.919458
  H            9.262765        9.722122        7.883870
  H            7.837763        7.475189        9.403726
  H            7.928165        7.651278        7.643351
  H            5.766404        8.620315        8.905871
  H            6.559374        9.655703        7.679261
  O           28.495062       38.951538       20.956586
  S           29.572613       39.083749       21.908429
  O           29.346088       39.544758       23.264474
  C           30.472944       37.546357       21.961597
  C           31.928813       37.930956       21.711743
  C           31.898658       39.057952       20.678897
  C           30.878513       40.056368       21.181560
  H           30.328564       37.057985       22.929661
  H           30.098493       36.903839       21.160874
  H           32.513531       37.075112       21.357997
  H           32.387173       38.294116       22.639817
  H           31.582676       38.649146       19.704508
  H           32.879570       39.515920       20.544074
  H           30.468354       40.685073       20.384943
  H           31.301957       40.687324       21.969399
  O           32.625946       14.014218       21.823473
  S           33.879098       13.326881       21.619071
  O           34.775688       13.673013       20.533245
  C           34.790312       13.343303       23.150873
  C           35.135412       11.881406       23.422284
  C           33.923433       11.067844       22.967286
  C           33.582112       11.569033       21.580740
  H           35.679507       13.972955       23.054068
  H           34.136963       13.739233       23.932266
  H           35.359701       11.713307       24.481027
  H           36.016413       11.587600       22.838490
  H           33.082406       11.252934       23.656354
  H           34.125379        9.995787       22.970869
  H           32.540779       11.378474       21.302511
  H           34.250552       11.134543       20.830736
  O           26.896839       37.291557        3.194856
  S           25.680084       37.089247        2.444404
  O           25.635061       37.234508        1.002332
  C           24.997673       35.503773        2.888915
  C           23.557792       35.794430        3.303838
  C           23.591261       37.132047        4.043744
  C           24.379782       38.076063        3.162115
  H           25.058790       34.815656        2.040824
  H           25.571883       35.109107        3.730771
  H           23.153982       34.994843        3.933995
  H           22.919857       35.880727        2.415643
  H           24.102912       36.998900        5.011672
  H           22.589250       37.512107        4.247771
  H           24.816922       38.912583        3.716410
  H           23.761097       38.457889        2.343862
  O            9.531101       34.637950       29.646469
  S            8.927958       35.287301       30.786277
  O            9.051028       34.751806       32.128215
  C            9.431587       36.997057       30.795953
  C            8.130947       37.792817       30.866667
  C            7.121679       37.033606       30.004822
  C            7.204018       35.587545       30.443372
  H           10.089050       37.191784       31.648199
  H            9.961485       37.201917       29.862443
  H            8.270861       38.820070       30.513573
  H            7.771768       37.836433       31.902229
  H            7.408018       37.126168       28.943765
  H            6.111398       37.431133       30.111613
  H            6.854902       34.888639       29.676724
  H            6.646783       35.426561       31.371636
  O            5.205549        4.341816       12.584130
  S            4.627565        3.926298       11.327993
  O            5.285039        4.178324       10.060353
  C            4.222524        2.193918       11.436614
  C            2.750352        2.105801       11.043110
  C            2.078934        3.347181       11.631304
  C            2.948710        4.519599       11.232401
  H            4.869382        1.612981       10.772846
  H            4.367341        1.873922       12.471423
  H            2.291203        1.183984       11.415849
  H            2.651081        2.116105        9.950709
  H            2.044702        3.255394       12.729850
  H            1.054194        3.465282       11.276255
  H            2.826908        5.384956       11.891508
  H            2.758254        4.814823       10.195738
  O           36.812300       40.890765       16.623568
  S           36.139095       39.658445       16.287734
  O           36.729371       38.362568       16.561553
  C           34.496230       39.704550       16.977566
  C           33.565327       39.411647       15.803884
  C           34.179970       40.109807       14.590382
  C           35.640164       39.712512       14.576639
  H           34.403408       38.967389       17.780360
  H           34.319713       40.708428       17.371609
  H           32.548424       39.767067       16.001583
  H           33.517154       38.330991       15.621783
  H           34.084018       41.201726       14.712473
  H           33.677746       39.834484       13.661906
  H           36.270537       40.422926       14.032541
  H           35.769918       38.708706       14.159941
  O           19.851624       33.119979       25.876215
  S           19.834662       34.523228       26.215634
  O           19.611019       34.981495       27.573085
  C           21.323417       35.275703       25.587630
  C           20.846160       36.457732       24.748028
  C           19.567424       35.993531       24.050064
  C           18.705619       35.373872       25.128726
  H           21.968901       35.583024       26.415522
  H           21.840482       34.541306       24.965131
  H           21.608919       36.769839       24.026718
  H           20.622006       37.314009       25.395981
  H           19.823394       35.238979       23.287482
  H           19.055346       36.814251       23.545787
  H           17.971666       34.664529       24.733445
  H           18.195915       36.144888       25.715103
  O           13.337447        5.455406       36.765860
  S           12.065471        4.927832       36.331873
  O           11.591670        3.623846       36.753575
  C           10.804024        6.140534       36.671147
  C           10.085687        6.347955       35.340407
  C           11.165185        6.276711       34.259940
  C           11.967179        5.027547       34.554208
  H           10.134617        5.778756       37.456965
  H           11.294662        7.061759       36.994905
  H            9.554639        7.305539       35.317558
  H            9.351075        5.549202       35.180286
  H           11.810157        7.168487       34.331679
  H           10.738724        6.255712       33.256052
  H           12.976461        5.059111       34.131768
  H           11.445485        4.133352       34.198749
  O           19.926868       27.714695       17.071102
  S           20.108261       28.584353       18.209255
  O           19.742704       28.176875       19.552024
  C           21.794521       29.161813       18.217541
  C           21.691968       30.683251       18.285434
  C           20.488866       31.066286       17.423094
  C           19.356598       30.163968       17.863539
  H           22.333643       28.739502       19.070478
  H           22.267837       28.846114       17.284532
  H           22.610997       31.162267       17.931275
  H           21.520111       31.003479       19.320431
  H           20.729728       30.884168       16.362330
  H           20.229225       32.120652       17.527965
  H           18.584349       30.043377       17.097257
  H           18.903280       30.527328       18.791209
  O           13.030529       27.104231       11.365693
  S           13.879066       26.029320       10.908363
  O           13.770080       24.685623       11.442499
  C           13.789867       25.955113        9.129729
  C           15.240112       26.015377        8.657439
  C           15.953890       26.983367        9.601535
  C           15.582324       26.548664       11.002667
  H           13.284394       25.037409        8.815380
  H           13.231250       26.826595        8.779493
  H           15.307947       26.344745        7.615126
  H           15.701494       25.022814        8.729854
  H           15.592051       28.007962        9.412650
  H           17.034343       26.980132        9.450838
  H           15.680959       27.352476       11.739049
  H           16.177054       25.684955       11.316360
  O           15.692537       11.765830        2.848127
  S           14.462395       11.306044        2.248170
  O           13.939346       11.888937        1.027778
  C           14.554590        9.536812        2.052417
  C           13.300423        8.996822        2.734603
  C           13.076113        9.874555        3.966298
  C           13.175035       11.304903        3.482026
  H           14.599458        9.276602        0.990920
  H           15.455257        9.183796        2.560727
  H           13.415587        7.942135        3.006396
  H           12.439049        9.080938        2.060616
  H           13.866171        9.668531        4.707757
  H           12.114803        9.674697        4.441732
  H           13.430720       12.008894        4.280225
  H           12.246611       11.619521        2.995051
  O           15.461017       31.938223       30.494692
  S           16.901047       31.968584       30.394733
  O           17.676517       30.773831       30.122866
  C           17.361102       33.236029       29.229000
  C           18.353962       34.121331       29.977578
  C           17.850622       34.198269       31.419288
  C           17.570418       32.771636       31.839292
  H           17.795400       32.784238       28.332467
  H           16.462421       33.798678       28.964431
  H           18.426536       35.114686       29.522079
  H           19.352081       33.666645       29.959735
  H           16.922079       34.792707       31.448485
  H           18.573272       34.679266       32.079984
  H           16.853331       32.702485       32.663370
  H           18.495672       32.253223       32.109945
  O           27.739579       31.966440        8.188447
  S           27.404815       32.122643        6.792692
  O           26.554014       33.199149        6.323678
  C           28.914317       32.121840        5.844851
  C           28.714348       31.044452        4.782238
  C           27.938912       29.916044        5.462821
  C           26.773506       30.576989        6.166510
  H           29.088068       33.111008        5.411427
  H           29.737220       31.858753        6.514042
  H           29.672089       30.692756        4.384064
  H           28.126196       31.443781        3.946825
  H           28.593343       29.417227        6.197192
  H           27.604659       29.161094        4.749780
  H           26.379952       29.978672        6.994298
  H           25.968563       30.807122        5.461382
  O            5.999617       33.593170       25.539423
  S            6.262038       33.856523       26.934550
  O            6.503276       35.197847       27.429883
  C            4.970872       33.103475       27.905534
  C            5.699062       32.230175       28.923859
  C            6.900108       31.633653       28.189386
  C            7.579649       32.792415       27.492469
  H            4.355904       33.874710       28.378303
  H            4.355705       32.492735       27.240127
  H            5.042592       31.450034       29.323768
  H            6.048321       32.842715       29.764165
  H            6.543976       30.899494       27.447375
  H            7.579350       31.116204       28.868338
  H            8.186159       32.479322       26.636771
  H            8.196116       33.364736       28.192838
  O           14.447928       28.507394       17.501927
  S           13.593072       27.790002       16.585864
  O           13.289994       26.382886       16.761554
  C           12.067101       28.694051       16.409489
  C           11.895621       28.892389       14.905774
  C           13.297243       29.142149       14.348213
  C           14.173790       28.048977       14.919912
  H           11.241644       28.131297       16.854941
  H           12.179314       29.655169       16.917288
  H           11.219901       29.726026       14.686793
  H           11.474683       27.986802       14.451878
  H           13.651942       30.130098       14.686658
  H           13.309997       29.141002       13.257371
  H           15.234499       28.318520       14.938446
  H           14.040184       27.111431       14.371044
  O           34.131275        4.922958       29.824999
  S           35.073130        5.652336       29.009206
  O           35.454483        5.198347       27.685891
  C           34.539009        7.349835       28.908145
  C           35.748114        8.172354       29.345669
  C           36.415561        7.380283       30.470363
  C           36.550636        5.962711       29.958070
  H           34.218983        7.584506       27.888825
  H           33.705199        7.486962       29.601079
  H           35.452061        9.173140       29.677753
  H           36.448830        8.286319       28.509422
  H           35.768535        7.401990       31.363272
  H           37.381757        7.802246       30.750565
  H           36.632639        5.224478       30.762052
  H           37.406411        5.869551       29.281999
  O           21.455223       24.017727       40.478677
  S           21.091304       23.144471       39.387996
  O           21.487688       23.418986       38.020435
  C           21.574573       21.481249       39.808878
  C           20.309827       20.644821       39.633648
  C           19.152022       21.520819       40.113143
  C           19.331609       22.859130       39.429862
  H           22.389856       21.149575       39.159412
  H           21.902696       21.474742       40.851228
  H           20.368102       19.708437       40.198704
  H           20.167848       20.393655       38.575321
  H           19.216563       21.640843       41.207597
  H           18.181668       21.077717       39.884729
  H           18.839109       23.679261       39.961772
  H           18.975350       22.822693       38.395525
  O           33.045123       11.734433       30.717694
  S           32.557784       10.383184       30.571993
  O           32.654052        9.664162       29.316430
  C           33.263922        9.383773       31.867967
  C           32.071281        8.717846       32.549178
  C           30.953417        9.760921       32.562393
  C           30.873444       10.303586       31.151961
  H           33.964368        8.657738       31.445181
  H           33.787507       10.045588       32.562273
  H           32.323770        8.384286       33.561348
  H           31.749996        7.840968       31.973712
  H           31.218105       10.567946       33.265991
  H           30.001929        9.337060       32.886605
  H           30.420657       11.298907       31.102782
  H           30.327871        9.616552       30.497411
  O            7.689409       32.753091       18.890228
  S            8.198623       31.459805       18.499443
  O            8.821857       30.561071       19.451576
  C            6.911963       30.583353       17.631491
  C            7.542826       30.163693       16.306426
  C            8.451080       31.318954       15.884232
  C            9.285858       31.658207       17.100066
  H            6.572405       29.728516       18.223482
  H            6.081661       31.273917       17.464398
  H            6.780049       29.952792       15.549331
  H            8.142410       29.255689       16.445444
  H            7.829286       32.183257       15.596564
  H            9.073398       31.058125       15.027034
  H            9.674329       32.681312       17.078946
  H           10.113023       30.951107       17.217999
  O           29.388030       39.400365       27.597162
  S           28.983597       39.363395       26.211641
  O           29.075880       40.529138       25.354188
  C           29.804059       37.994084       25.418654
  C           28.685118       37.183792       24.769579
  C           27.503609       37.240047       25.738430
  C           27.332443       38.698996       26.102256
  H           30.532504       38.361519       24.690053
  H           30.311107       37.407737       26.188913
  H           28.998876       36.152594       24.575449
  H           28.398431       37.636619       23.812470
  H           27.743497       36.649248       26.638325
  H           26.595217       36.823689       25.300744
  H           26.814681       38.843036       27.055815
  H           26.806689       39.241908       25.310468
  O           19.612258       19.253907       18.189527
  S           19.821203       18.750479       16.852553
  O           19.352554       17.440404       16.444174
  C           19.229361       19.965943       15.690929
  C           20.402355       20.215692       14.746677
  C           21.662033       20.162726       15.611666
  C           21.548620       18.898425       16.435607
  H           18.344277       19.589911       15.169656
  H           18.977525       20.873404       16.245268
  H           20.305167       21.178669       14.234105
  H           20.446095       19.428673       13.983796
  H           21.686662       21.045956       16.271740
  H           22.572181       20.172606       15.010306
  H           22.146134       18.931394       17.352116
  H           21.825331       18.019128       15.845379
  O           27.957114        1.006255       30.441642
  S           27.922764        2.303513       31.074526
  O           28.345643        3.505876       30.383010
  C           26.291765        2.563508       31.744782
  C           26.518320        2.918959       33.211829
  C           27.686353        2.052030       33.682929
  C           28.771321        2.212663       32.640220
  H           25.780363        3.358849       31.194872
  H           25.732605        1.629014       31.653883
  H           25.617937        2.742287       33.809823
  H           26.784962        3.978845       33.305863
  H           27.360214        0.999662       33.733475
  H           28.034840        2.339325       34.675964
  H           29.477685        1.376614       32.627163
  H           29.313985        3.152909       32.780056
  O           34.993824       23.003558       16.520165
  S           34.213142       22.245822       15.570969
  O           33.880277       22.769029       14.260185
  C           34.957706       20.637525       15.381226
  C           33.829074       19.644647       15.646336
  C           32.986191       20.250313       16.769064
  C           32.717318       21.682765       16.361650
  H           35.380397       20.533582       14.377718
  H           35.747146       20.536547       16.130084
  H           34.219729       18.659256       15.921821
  H           33.213013       19.525469       14.746577
  H           33.561486       20.223993       17.709672
  H           32.060674       19.695888       16.930718
  H           32.484657       22.331679       17.211874
  H           31.910263       21.736195       15.624149
  O            6.028832       17.984964       33.630735
  S            7.392194       18.287115       33.997544
  O            8.474648       17.350620       33.765230
  C            7.830776       19.865753       33.295726
  C            8.344750       20.692866       34.471148
  C            7.470076       20.318439       35.668040
  C            7.437368       18.805856       35.702996
  H            8.584548       19.734665       32.513969
  H            6.928428       20.313128       32.871669
  H            8.296898       21.765773       34.256484
  H            9.389777       20.436194       34.684076
  H            6.453492       20.717399       35.513808
  H            7.852204       20.735807       36.600714
  H            6.563784       18.410053       36.230529
  H            8.352296       18.403682       36.149384
  O           18.204499       13.066390       21.704071
  S           17.960258       13.953005       20.591030
  O           18.188196       15.382012       20.684205
  C           18.820747       13.320559       19.163945
  C           17.757472       13.217444       18.073664
  C           16.475350       12.764609       18.772881
  C           16.311583       13.673361       19.971860
  H           19.639421       13.991873       18.888972
  H           19.216844       12.333298       19.414194
  H           18.057418       12.516385       17.287504
  H           17.597173       14.198450       17.609734
  H           16.591206       11.718256       19.101702
  H           15.609849       12.810173       18.110362
  H           15.693117       13.232518       20.760058
  H           15.897953       14.642662       19.676114
  O           36.355462       29.197824       28.404504
  S           35.634464       28.980977       27.172539
  O           36.044107       29.596906       25.925332
  C           35.457780       27.225209       26.921413
  C           33.961883       27.003142       26.714341
  C           33.253960       27.972481       27.661456
  C           33.904547       29.320797       27.440142
  H           36.052160       26.905614       26.060558
  H           35.804550       26.714958       27.823408
  H           33.680111       25.964154       26.915856
  H           33.686646       27.233933       25.677866
  H           33.408908       27.641624       28.702093
  H           32.178589       28.008526       27.481520
  H           33.790630       29.994960       28.294910
  H           33.515655       29.800668       26.536490
  O            5.851299       28.720663       25.079566
  S            7.074518       29.308247       24.586534
  O            7.328333       30.733579       24.668423
  C            8.452047       28.432088       25.301908
  C            9.308869       28.003081       24.113754
  C            8.331524       27.627812       22.999407
  C            7.345305       28.771990       22.907605
  H            8.992970       29.081882       25.995933
  H            8.062805       27.560714       25.834259
  H            9.963959       27.165131       24.374901
  H            9.940595       28.837096       23.784149
  H            7.808757       26.696132       23.273427
  H            8.840073       27.455775       22.049732
  H            6.391738       28.478292       22.457547
  H            7.771694       29.614211       22.353569
  O            1.282397       25.207044        6.772818
  S            2.512216       25.354135        7.514780
  O            3.810298       25.237056        6.879188
  C            2.446735       26.887504        8.421140
  C            2.742627       26.504940        9.868895
  C            2.060312       25.156169       10.099251
  C            2.469444       24.278448        8.936317
  H            3.175918       27.595807        8.017282
  H            1.437986       27.296969        8.326460
  H            2.377288       27.266191       10.566408
  H            3.824446       26.400532       10.017439
  H            0.966609       25.298311       10.102149
  H            2.339880       24.714284       11.056685
  H            1.769016       23.457203        8.754498
  H            3.477947       23.878715        9.082038
  O           21.330238       27.290619       36.894085
  S           21.604561       27.424500       35.482907
  O           21.436979       28.684471       34.784990
  C           23.242039       26.797625       35.162445
  C           23.061407       25.767714       34.050440
  C           21.738271       25.058312       34.340027
  C           20.725192       26.153613       34.593382
  H           23.908776       27.614919       34.872632
  H           23.610171       26.322603       36.075152
  H           23.898727       25.062462       34.018606
  H           23.004496       26.270278       33.077049
  H           21.852267       24.430198       35.239403
  H           21.433729       24.408704       33.518222
  H           19.869946       25.814869       35.186599
  H           20.373435       26.588239       33.652390
  O           39.997127       29.340105       13.537710
  S           39.193057       28.172604       13.811595
  O           39.672747       26.830674       13.543600
  C           38.625484       28.259137       15.499011
  C           37.109680       28.100020       15.415830
  C           36.673191       28.847187       14.155268
  C           37.592877       28.373361       13.050792
  H           39.097308       27.473647       16.096413
  H           38.891181       29.241019       15.898401
  H           36.616356       28.495246       16.310217
  H           36.846658       27.038975       15.324704
  H           36.797234       29.931457       14.314552
  H           35.624992       28.665190       13.913904
  H           37.666750       29.084979       12.222395
  H           37.279398       27.395669       12.671384
  O            6.526897       28.416422       37.983039
  S            7.798149       29.023776       38.298695
  O            8.848857       28.293583       38.980994
  C            8.465384       29.745879       36.811965
  C            8.768504       31.196517       37.177574
  C            7.641854       31.643456       38.109618
  C            7.514540       30.560011       39.158492
  H            9.357487       29.198430       36.494239
  H            7.699728       29.693710       36.033987
  H            8.829308       31.829415       36.285811
  H            9.728822       31.259626       37.703984
  H            6.705261       31.726759       37.533203
  H            7.843381       32.617542       38.557551
  H            6.528177       30.538891       39.632562
  H            8.290419       30.661543       39.923870
  O           15.979053       10.283010        4.977557
  S           16.983475        9.543154        4.250679
  O           17.468617        9.977607        2.955076
  C           18.375977        9.269202        5.329052
  C           18.615015        7.762080        5.292385
  C           17.231310        7.114397        5.231809
  C           16.481338        7.836176        4.133275
  H           19.241514        9.839564        4.979719
  H           18.097611        9.593517        6.334801
  H           19.180070        7.425320        6.168059
  H           19.187140        7.493043        4.395951
  H           16.720573        7.257889        6.198741
  H           17.289520        6.041438        5.043473
  H           15.394382        7.764873        4.240710
  H           16.780201        7.468133        3.146702
  O           32.893000       28.577733       36.973744
  S           33.073594       27.299909       37.621163
  O           33.596572       26.147973       36.912476
  C           34.025948       27.547710       39.107305
  C           33.196150       26.912873       40.220102
  C           31.735225       27.214744       39.884880
  C           31.554484       26.835161       38.431110
  H           35.012338       27.086221       39.004532
  H           34.133015       28.623228       39.268541
  H           33.474781       27.308942       41.202443
  H           33.353828       25.827420       40.235249
  H           31.546225       28.292533       40.022900
  H           31.045934       26.671494       40.532845
  H           30.713037       27.350283       37.957068
  H           31.435332       25.752781       38.319942
  O           25.583566       32.839199       36.854670
  S           25.233767       31.830204       37.826354
  O           25.538717       30.427711       37.619665
  C           25.864267       32.332372       39.416102
  C           24.660540       32.282817       40.353379
  C           23.464191       32.766842       39.533460
  C           23.505614       31.988002       38.236582
  H           26.669074       31.662086       39.731539
  H           26.243789       33.353147       39.325654
  H           24.819069       32.904242       41.241185
  H           24.485427       31.252806       40.687613
  H           23.574112       33.845766       39.332858
  H           22.520634       32.622112       40.061525
  H           22.978686       32.491145       37.419701
  H           23.101786       30.979595       38.371259
  O           14.702652       15.870888        7.177727
  S           15.218147       16.707869        8.235236
  O           14.484937       16.926420        9.467039
  C           16.869435       16.166563        8.631765
  C           17.733698       17.420173        8.524937
  C           17.179838       18.217970        7.344022
  C           15.682976       18.289301        7.555010
  H           16.891791       15.726002        9.632717
  H           17.171776       15.422573        7.890638
  H           18.789495       17.167018        8.381041
  H           17.649918       18.014909        9.442853
  H           17.406738       17.683458        6.406358
  H           17.625887       19.211196        7.275892
  H           15.129376       18.467259        6.627671
  H           15.426581       19.057160        8.291729
  O           12.729588       22.381513       19.740997
  S           12.835753       21.867387       18.396006
  O           13.684537       20.737372       18.071455
  C           11.193358       21.555147       17.777909
  C           11.117233       22.312706       16.454955
  C           11.896440       23.611476       16.664318
  C           13.216580       23.209614       17.285557
  H           11.034697       20.479870       17.654997
  H           10.475878       21.957572       18.497268
  H           10.079278       22.507321       16.164655
  H           11.587861       21.725437       15.656879
  H           11.335084       24.264695       17.353220
  H           12.039035       24.158198       15.731119
  H           13.691393       24.023558       17.842466
  H           13.907511       22.828520       16.526953
  O           32.704668       26.281776       31.822996
  S           33.288996       25.161613       31.124143
  O           32.479304       24.207727       30.391203
  C           34.577349       25.771508       30.054016
  C           35.814792       24.955758       30.418965
  C           35.759305       24.755399       31.933751
  C           34.358477       24.270761       32.238725
  H           34.287643       25.647840       29.006506
  H           34.731688       26.830511       30.275133
  H           36.734513       25.465603       30.112905
  H           35.784797       23.980770       29.917170
  H           35.945488       25.720171       32.434701
  H           36.515353       24.049899       32.281257
  H           34.055372       24.465016       33.272403
  H           34.255473       23.203705       32.017631
  O           10.193465       40.927111       22.410527
  S            9.187067       39.943681       22.733990
  O            8.317753       40.085896       23.885844
  C            8.188213       39.658200       21.285615
  C            8.222979       38.147238       21.071876
  C            9.638731       37.699608       21.436672
  C            9.941399       38.328560       22.779434
  H            7.174207       40.035637       21.446341
  H            8.650653       40.179825       20.444035
  H            7.969911       37.883410       20.039475
  H            7.499358       37.656282       21.734170
  H           10.344589       38.070995       20.674940
  H            9.728512       36.612911       21.470263
  H           11.014311       38.429570       22.971153
  H            9.472243       37.764525       23.591751
  O            3.142922       36.054903       14.777989
  S            3.576758       34.740978       15.190285
  O            2.826499       33.545692       14.856964
  C            5.272219       34.520522       14.686487
  C            6.013168       34.112180       15.956980
  C            5.385459       34.920847       17.092691
  C            3.888678       34.752597       16.945925
  H            5.336765       33.761704       13.901294
  H            5.643760       35.477236       14.311179
  H            7.088220       34.303322       15.871967
  H            5.873465       33.040845       16.146782
  H            5.661890       35.982419       16.978454
  H            5.734897       34.590650       18.071958
  H            3.320328       35.562194       17.414571
  H            3.560599       33.789242       17.348927
  O            3.580087       12.056258       14.270462
  S            4.199755       12.858268       13.242166
  O            5.084065       13.962822       13.559430
  C            5.020251       11.770387       12.093122
  C            4.473357       12.157380       10.721611
  C            2.995591       12.488563       10.932142
  C            2.944643       13.433077       12.113455
  H            6.104560       11.896498       12.162901
  H            4.748132       10.741994       12.343240
  H            4.605975       11.348407        9.995336
  H            4.998779       13.042559       10.342546
  H            2.444889       11.561195       11.162611
  H            2.544267       12.929908       10.042411
  H            1.972222       13.435794       12.615938
  H            3.208282       14.452042       11.812946
  O           38.190246       16.899791       13.955253
  S           38.201722       17.256347       12.556205
  O           37.351264       16.591397       11.588081
  C           37.968847       19.018146       12.418974
  C           39.136133       19.506793       11.565412
  C           40.345697       18.669038       11.981248
  C           39.881948       17.228665       11.959737
  H           36.997674       19.236034       11.965269
  H           38.015682       19.447679       13.422721
  H           39.317467       20.577055       11.710861
  H           38.921091       19.340924       10.502612
  H           40.651891       18.954835       13.001525
  H           41.200011       18.828163       11.321758
  H           40.487132       16.576015       12.596841
  H           39.866273       16.836579       10.937913
  O           30.418238       11.872324       21.603684
  S           29.337905       12.182326       20.697384
  O           29.525189       12.204563       19.259632
  C           27.953409       11.128947       21.085408
  C           26.776791       12.079840       21.288561
  C           27.344941       13.314109       21.989692
  C           28.573451       13.712608       21.200920
  H           27.781677       10.417106       20.272825
  H           28.181920       10.591576       22.009105
  H           25.981233       11.611554       21.877878
  H           26.354334       12.369158       20.318446
  H           27.625849       13.047947       23.022479
  H           26.617984       14.125808       22.042415
  H           29.284461       14.302644       21.787795
  H           28.297283       14.260980       20.294764
  O           11.342459       14.358055       23.792778
  S           11.167734       13.132384       23.049945
  O            9.929049       12.379674       23.092221
  C           11.604854       13.434250       21.348533
  C           12.639828       12.364735       21.009612
  C           13.495117       12.189141       22.264780
  C           12.522111       12.030765       23.412986
  H           10.715831       13.373273       20.714168
  H           12.042769       14.433175       21.280862
  H           13.246647       12.655024       20.145319
  H           12.139234       11.418603       20.769738
  H           14.113502       13.090460       22.411827
  H           14.168318       11.334422       22.185057
  H           12.959070       12.292754       24.381763
  H           12.122284       11.012536       23.451048
  O           25.843107       30.341649       17.812072
  S           26.347943       30.407563       19.163144
  O           25.477507       30.655540       20.296082
  C           27.309004       28.940415       19.480691
  C           28.660405       29.450990       19.973567
  C           28.961776       30.708812       19.158176
  C           27.710032       31.556850       19.222737
  H           26.803897       28.311147       20.219196
  H           27.419850       28.394999       18.540247
  H           29.442587       28.694144       19.851600
  H           28.600570       29.707888       21.038331
  H           29.173955       30.422719       18.114370
  H           29.832577       31.244454       19.538824
  H           27.630459       32.264109       18.391141
  H           27.649715       32.095880       20.173478
  O           14.962341       36.942001       19.557752
  S           14.817753       37.815457       20.698264
  O           14.708903       37.300977       22.049620
  C           16.116103       39.035491       20.645288
  C           15.399945       40.380399       20.736067
  C           14.110671       40.229927       19.928024
  C           13.469222       38.944126       20.402850
  H           16.816531       38.876979       21.470378
  H           16.637681       38.937381       19.690023
  H           16.024919       41.193129       20.350870
  H           15.155292       40.607200       21.781058
  H           14.360283       40.157253       18.856197
  H           13.445093       41.084700       20.056351
  H           12.783405       38.512378       19.667087
  H           12.946030       39.093875       21.352558
  O           28.342388       16.153707        7.740990
  S           28.341394       17.595622        7.666970
  O           27.254637       18.390643        8.205114
  C           29.883009       18.197614        8.328808
  C           30.456175       19.100404        7.239610
  C           30.111802       18.430846        5.908858
  C           28.638064       18.094536        5.980918
  H           29.707658       18.732021        9.266977
  H           30.536596       17.339814        8.505451
  H           31.537071       19.232153        7.357104
  H           29.987097       20.090927        7.285768
  H           30.707507       17.508903        5.801362
  H           30.338258       19.073292        5.056754
  H           28.351542       17.284777        5.302467
  H           28.023612       18.978268        5.782001
  O           26.897065        6.726135       24.523427
  S           26.480417        6.181050       25.793816
  O           26.097512        7.030782       26.904688
  C           25.186658        4.990224       25.502060
  C           25.657418        3.715432       26.197179
  C           27.169788        3.648841       25.982464
  C           27.704354        5.013730       26.358653
  H           24.237386        5.359220       25.901089
  H           25.102241        4.835517       24.423571
  H           25.153389        2.830587       25.794060
  H           25.439921        3.769510       27.270991
  H           27.376767        3.438982       24.919676
  H           27.632570        2.856986       26.573141
  H           28.668647        5.237831       25.891729
  H           27.786865        5.117140       27.445206
  O            9.832720       21.043660        9.434530
  S            8.828212       21.237054       10.453434
  O            8.146421       22.504926       10.627676
  C            7.613401       19.941323       10.304057
  C            7.527494       19.316595       11.694106
  C            8.952496       19.317214       12.248334
  C            9.484618       20.716613       12.027591
  H            6.657773       20.356767        9.971367
  H            7.977838       19.214510        9.573901
  H            7.111207       18.304425       11.652673
  H            6.880749       19.922776       12.340298
  H            9.560128       18.586548       11.688592
  H            8.982047       19.035394       13.301806
  H           10.578095       20.758094       12.001370
  H            9.106775       21.405034       12.790095
  O           39.320728       40.622431       34.032184
  S           38.906496       40.351682       35.388542
  O           37.936935       41.183189       36.075017
  C           38.387800       38.649617       35.493092
  C           39.200201       38.057694       36.641801
  C           40.586834       38.695892       36.553755
  C           40.352225       40.184846       36.418946
  H           37.309755       38.594010       35.669803
  H           38.636170       38.158659       34.548914
  H           39.253494       36.965940       36.573002
  H           38.736928       38.314458       37.602399
  H           41.107888       38.310610       35.661308
  H           41.201487       38.461033       37.423895
  H           41.194733       40.709466       35.957367
  H           40.123188       40.635592       37.389755
  O           24.380346       37.248365       24.820223
  S           25.120529       36.799612       23.664650
  O           26.294222       37.503075       23.184772
  C           25.526474       35.078179       23.885728
  C           25.009470       34.384516       22.628175
  C           23.698249       35.083094       22.266942
  C           23.993306       36.566962       22.302686
  H           26.605909       34.958983       24.016545
  H           25.001552       34.715057       24.772745
  H           24.862621       33.312034       22.794659
  H           25.728768       34.504847       21.808767
  H           22.932454       34.829346       23.018985
  H           23.322447       34.769408       21.292019
  H           23.097649       37.176438       22.459012
  H           24.503887       36.887747       21.389175
  O           10.977673       26.808747        7.741294
  S           11.303805       27.096039        6.364449
  O           10.488607       26.614063        5.266337
  C           11.528166       28.855751        6.191025
  C           12.902401       29.018371        5.546872
  C           13.789406       27.934478        6.160221
  C           13.002142       26.645933        6.059890
  H           10.726003       29.279875        5.580162
  H           11.512048       29.301684        7.188564
  H           13.309997       30.019806        5.721499
  H           12.830840       28.865945        4.462923
  H           13.984035       28.179931        7.217705
  H           14.753035       27.859450        5.654365
  H           13.319367       25.894198        6.789522
  H           13.060054       26.228214        5.049812
  O            8.358594       11.600604       12.912409
  S            8.631717       12.736696       12.064295
  O            8.287699       12.742732       10.655638
  C            7.951765       14.193833       12.833333
  C            9.112060       15.183159       12.902981
  C           10.358210       14.354230       13.215689
  C           10.345242       13.198145       12.239215
  H            7.111635       14.573774       12.244839
  H            7.611840       13.923321       13.836067
  H            8.937374       15.951574       13.663587
  H            9.237183       15.685791       11.936024
  H           10.294177       13.978633       14.250690
  H           11.272874       14.942929       13.132483
  H           10.923505       12.337307       12.589457
  H           10.707979       13.511444       11.255159
  O           40.978923       24.480461       25.006004
  S           40.345480       24.087936       26.242642
  O           40.853854       22.997979       27.052734
  C           40.159657       25.534279       27.267611
  C           38.679307       25.569865       27.638011
  C           37.920223       25.096329       26.398110
  C           38.606341       23.823925       25.950418
  H           40.809552       25.461239       28.144425
  H           40.432238       26.410387       26.674032
  H           38.367314       26.574487       27.942797
  H           38.483360       24.886235       28.473209
  H           37.994326       25.865533       25.611196
  H           36.861367       24.933307       26.603898
  H           38.441640       23.600158       24.891692
  H           38.291393       22.972227       26.561580
  O           32.851688       33.638319       14.952600
  S           32.700136       32.397961       14.229314
  O           32.793063       32.336719       12.783522
  C           33.809127       31.193012       14.933045
  C           32.928680       29.991728       15.267154
  C           31.600079       30.564075       15.762167
  C           31.188391       31.603324       14.742032
  H           34.600831       30.946974       14.219483
  H           34.244702       31.619051       15.840219
  H           33.397154       29.349763       16.020754
  H           32.757281       29.388325       14.367250
  H           31.752801       31.037132       16.746694
  H           30.839837       29.790638       15.880178
  H           30.500047       32.351002       15.148553
  H           30.743661       31.132526       13.859613
  O           12.865716       29.043677        8.902989
  S           13.137753       30.446994        8.699775
  O           12.397386       31.240526        7.738076
  C           13.096446       31.266670       10.281997
  C           14.427513       32.007403       10.379342
  C           15.469508       31.094231        9.732686
  C           14.882480       30.667412        8.404746
  H           12.236665       31.940794       10.335227
  H           13.019602       30.503044       11.059924
  H           14.682309       32.237039       11.419460
  H           14.373447       32.953551        9.826911
  H           15.631259       30.214195       10.377492
  H           16.430736       31.594623        9.607195
  H           15.312218       29.733605        8.028674
  H           14.996378       31.455549        7.653769
  O           30.217027       14.816273       33.852793
  S           30.866045       13.576481       33.497417
  O           30.128470       12.453165       32.952583
  C           32.239595       13.944209       32.422645
  C           33.444794       13.273229       33.076237
  C           33.258418       13.442358       34.584368
  C           31.838918       13.008840       34.879807
  H           32.043050       13.564228       31.415925
  H           32.368424       15.028968       32.392638
  H           34.384989       13.718297       32.733532
  H           33.463875       12.205620       32.824946
  H           33.395055       14.503956       34.850339
  H           33.985000       12.861488       35.154252
  H           31.445752       13.438394       35.806631
  H           31.761268       11.917623       34.916066
  O            7.298734       20.931158       29.474388
  S            7.968604       21.945535       30.253434
  O            7.445243       22.406718       31.524694
  C            9.670789       21.462396       30.468239
  C           10.486249       22.658265       29.983653
  C            9.733081       23.225670       28.780079
  C            8.290572       23.360614       29.217293
  H            9.864631       21.220167       31.517167
  H            9.858198       20.586008       29.842921
  H           11.507636       22.364917       29.718673
  H           10.545823       23.418195       30.772486
  H            9.810469       22.518727       27.937082
  H           10.146481       24.180240       28.451449
  H            7.588990       23.367884       28.377156
  H            8.147380       24.258831       29.826229
  O           23.924329       10.121341       22.132841
  S           22.712908       10.888257       22.302832
  O           21.614922       10.416102       23.123928
  C           23.153960       12.536952       22.816910
  C           22.459016       13.461720       21.821040
  C           22.541112       12.762232       20.463919
  C           22.077823       11.340901       20.699248
  H           22.829384       12.710368       23.846996
  H           24.239891       12.637143       22.746812
  H           22.931825       14.449283       21.795123
  H           21.407491       13.596772       22.102745
  H           23.587326       12.768404       20.114925
  H           21.936179       13.264189       19.707483
  H           22.450641       10.640278       19.945435
  H           20.985590       11.286760       20.746115
  O           23.270682        9.324508       24.076328
  S           24.246019        9.272484       25.139630
  O           24.415439        8.094615       25.968256
  C           25.831067        9.748563       24.477836
  C           26.317623       10.874663       25.386165
  C           25.078038       11.693275       25.748245
  C           24.034700       10.692977       26.196628
  H           26.510404        8.891259       24.472302
  H           25.680110       10.110620       23.457872
  H           27.076179       11.489336       24.889910
  H           26.762787       10.457624       26.297871
  H           24.726415       12.234597       24.853968
  H           25.287651       12.432702       26.522461
  H           23.012115       11.071886       26.102559
  H           24.216443       10.371461       27.227015
  O            4.920466        6.485339       27.048409
  S            3.517021        6.244222       27.286743
  O            2.855130        5.041535       26.819681
  C            3.196151        6.443259       29.028703
  C            2.052035        7.450517       29.108272
  C            2.305721        8.469404       27.996826
  C            2.580372        7.662177       26.746565
  H            2.938196        5.479533       29.477248
  H            4.098318        6.842975       29.498301
  H            2.008468        7.929398       30.092282
  H            1.093475        6.946437       28.934019
  H            3.187195        9.078963       28.257287
  H            1.461617        9.147314       27.862565
  H            3.153746        8.217451       25.997558
  H            1.648911        7.296742       26.302788
  O           36.058032       34.341169       11.431134
  S           35.263936       34.135884       12.619356
  O           34.919461       32.809009       13.092050
  C           35.999297       35.055252       13.957641
  C           34.869157       35.917190       14.514190
  C           34.040969       36.361383       13.308124
  C           33.774131       35.108719       12.502004
  H           36.410816       34.370171       14.704512
  H           36.796208       35.679181       13.545519
  H           35.258348       36.774288       15.074022
  H           34.243030       35.325158       15.192987
  H           34.626122       37.080594       12.710854
  H           33.114775       36.854379       13.606821
  H           33.553416       35.317041       11.450345
  H           32.959516       34.524880       12.942044
