        3360
  Built with Packmol                                             
  O           21.525712       25.249843       33.738399
  S           22.014376       25.927610       34.915871
  O           22.111137       25.261083       36.200035
  C           23.587110       26.671845       34.529062
  C           23.437547       28.139819       34.919679
  C           22.006808       28.533313       34.550968
  C           21.116374       27.453644       35.126852
  H           24.387513       26.170621       35.080995
  H           23.756767       26.571739       33.454168
  H           24.173626       28.767378       34.406008
  H           23.585537       28.259189       36.000026
  H           21.909393       28.560987       33.452722
  H           21.742678       29.520674       34.932352
  H           20.148683       27.383407       34.620156
  H           20.961676       27.603483       36.200033
  O            1.772436       24.480221        8.317482
  S            2.451238       23.206928        8.266956
  O            2.069919       22.171089        7.326567
  C            4.202756       23.504352        8.123003
  C            4.834468       22.710646        9.263561
  C            3.874986       22.832747       10.447743
  C            2.500530       22.505413        9.905598
  H            4.560371       23.183213        7.140414
  H            4.378665       24.575207        8.251555
  H            5.831319       23.090726        9.511202
  H            4.935092       21.656228        8.978294
  H            3.897298       23.867807       10.827942
  H            4.152974       22.171447       11.269634
  H            1.691687       22.927548       10.510308
  H            2.364045       21.423673        9.809098
  O           32.421731       12.775761        5.036018
  S           31.727296       11.732556        5.753014
  O           32.429619       10.776284        6.586672
  C           30.414628       12.475471        6.702739
  C           29.154589       11.713448        6.300839
  C           29.291987       11.425018        4.805603
  C           30.676692       10.843632        4.619107
  H           30.630331       12.394567        7.772050
  H           30.339694       13.527460        6.416550
  H           28.250625       12.292160        6.518650
  H           29.093319       10.768244        6.854134
  H           29.196987       12.369131        4.243442
  H           28.517179       10.745992        4.446860
  H           31.055000       10.961345        3.598751
  H           30.699997        9.786588        4.902330
  O            7.405635       25.676042       26.597872
  S            7.171269       26.291045       25.312787
  O            6.778691       25.516191       24.151673
  C            6.020023       27.634425       25.529501
  C            6.706902       28.848678       24.910078
  C            8.191686       28.715440       25.249879
  C            8.577656       27.299132       24.882050
  H            5.068728       27.397946       25.044099
  H            5.864841       27.781212       26.601216
  H            6.287556       29.784655       25.294262
  H            6.576184       28.840666       23.820973
  H            8.332828       28.879443       26.331352
  H            8.800182       29.450220       24.720794
  H            9.462337       26.944534       25.420288
  H            8.738185       27.203581       23.803532
  O           24.442946       18.366398       25.849962
  S           25.495729       18.651974       26.795846
  O           26.799526       19.125115       26.372820
  C           24.854644       19.754894       28.040666
  C           25.157851       19.070206       29.370767
  C           24.953582       17.573570       29.133798
  C           25.715513       17.244453       27.868356
  H           25.330401       20.736237       27.956283
  H           23.776441       19.849608       27.889977
  H           24.509338       19.444274       30.170145
  H           26.198390       19.258206       29.662717
  H           23.878414       17.371509       28.993845
  H           25.296326       16.974847       29.978876
  H           25.346437       16.342203       27.370534
  H           26.786579       17.143427       28.070126
  O           31.863350        6.917832       32.913070
  S           32.770379        6.882329       34.035851
  O           32.305618        7.022771       35.402224
  C           33.768223        5.410664       33.911319
  C           35.211042        5.902259       33.991988
  C           35.251131        7.227041       33.229660
  C           34.092444        8.045798       33.756237
  H           33.516661        4.715076       34.717156
  H           33.570480        4.945362       32.942509
  H           35.907040        5.171120       33.567108
  H           35.493704        6.070802       35.038408
  H           35.119324        7.030271       32.152484
  H           36.202800        7.744621       33.358255
  H           33.760700        8.816804       33.053674
  H           34.341313        8.504752       34.718280
  O           17.272999       11.220700       32.399169
  S           16.619805       10.346830       33.344837
  O           16.817912       10.479169       34.775201
  C           14.871159       10.344732       32.999538
  C           14.499841        8.872407       32.843708
  C           15.679261        8.210605       32.130415
  C           16.918913        8.652108       32.877770
  H           14.325400       10.830854       33.813377
  H           14.707264       10.887182       32.065147
  H           13.568549        8.752289       32.280000
  H           14.360737        8.412511       33.829835
  H           15.717816        8.565222       31.086787
  H           15.586640        7.123853       32.108231
  H           17.827199        8.593550       32.269751
  H           17.050971        8.071746       33.796377
  O            6.791222       21.077566       27.809937
  S            7.207162       20.771296       29.158192
  O            6.511531       21.301546       30.314754
  C            7.338569       19.001288       29.321917
  C            8.747114       18.756338       29.856615
  C            9.646357       19.784845       29.170076
  C            8.948162       21.118431       29.325865
  H            6.563122       18.626251       29.996104
  H            7.217074       18.557044       28.330915
  H            9.078866       17.732179       29.655275
  H            8.770578       18.912892       30.942083
  H            9.741864       19.528031       28.101747
  H           10.649656       19.801804       29.598097
  H            9.251335       21.849653       28.569888
  H            9.110543       21.532000       30.326212
  O            6.229711        7.121353       12.261170
  S            6.599064        8.480488       12.578867
  O            5.672011        9.399888       13.209719
  C            8.114596        8.450931       13.516572
  C            9.061802        9.385119       12.768246
  C            8.780714        9.171641       11.280557
  C            7.277890        9.256946       11.124217
  H            7.928887        8.777236       14.543966
  H            8.497222        7.427314       13.514400
  H           10.108044        9.175650       13.015227
  H            8.852525       10.427933       13.036653
  H            9.137859        8.171364       10.983417
  H            9.293882        9.905611       10.657623
  H            6.912188        8.743587       10.229329
  H            6.942674       10.298894       11.115608
  O           13.829183       31.397365       27.069548
  S           13.525706       32.311769       25.994204
  O           14.225626       32.262960       24.725177
  C           11.770043       32.265444       25.690063
  C           11.315472       33.720363       25.770536
  C           12.138495       34.360770       26.888709
  C           13.578053       33.982456       26.615304
  H           11.568182       31.816589       24.713190
  H           11.302988       31.668926       26.477607
  H           10.240716       33.793245       25.968246
  H           11.521061       34.232318       24.822414
  H           11.814784       33.949024       27.859316
  H           12.005480       35.442887       26.926520
  H           14.206970       34.022022       27.510289
  H           14.008409       34.615409       25.832831
  O            6.196758       16.845850        5.221243
  S            6.092704       18.198400        5.715591
  O            6.132603       18.502357        7.132883
  C            7.299519       19.203644        4.872927
  C            6.507426       20.374669        4.297437
  C            5.166866       19.797204        3.842211
  C            4.653234       18.972281        5.002334
  H            8.076216       19.526276        5.572320
  H            7.743523       18.605375        4.073468
  H            7.043138       20.851618        3.469770
  H            6.337970       21.132103        5.072601
  H            5.328922       19.154426        2.960749
  H            4.460221       20.578145        3.557811
  H            3.937144       18.203515        4.695230
  H            4.203786       19.610808        5.769394
  O            4.494851       12.409577       17.232347
  S            3.092090       12.554363       17.542022
  O            2.056179       12.206854       16.588698
  C            2.763798       11.722384       19.083786
  C            2.080266       12.768227       19.960653
  C            2.766193       14.098343       19.647448
  C            2.792812       14.208014       18.138321
  H            2.135231       10.843827       18.911909
  H            3.719519       11.417430       19.517146
  H            2.160004       12.513505       21.022848
  H            1.015072       12.834494       19.707137
  H            3.794542       14.079197       20.045608
  H            2.249156       14.943134       20.104723
  H            3.577652       14.877828       17.772978
  H            1.821331       14.531047       17.751055
  O           32.451007       24.321698       16.081930
  S           32.842977       23.416380       17.136141
  O           33.514597       23.879638       18.334898
  C           31.423882       22.445253       17.605273
  C           31.884174       20.993833       17.498447
  C           32.804036       20.929132       16.278829
  C           33.782399       22.073229       16.433906
  H           31.103412       22.710033       18.617048
  H           30.619806       22.650598       16.894291
  H           31.033795       20.310845       17.399037
  H           32.444200       20.709021       18.397643
  H           32.203536       21.063600       15.363560
  H           33.315023       19.968350       16.202085
  H           34.222217       22.390379       15.483077
  H           34.577150       21.816876       17.141545
  O           21.325962       24.685558       14.273234
  S           20.067236       25.382244       14.395038
  O           18.833155       24.834949       13.865686
  C           19.822517       25.814223       16.106910
  C           19.556148       27.317195       16.102098
  C           20.466087       27.905889       15.023557
  C           20.261268       27.049399       13.792836
  H           18.989155       25.242110       16.524875
  H           20.741810       25.584872       16.651427
  H           19.753904       27.761580       17.083380
  H           18.507551       27.513177       15.846488
  H           21.514687       27.844100       15.359741
  H           20.242055       28.955329       14.827128
  H           21.105486       27.092798       13.097486
  H           19.338829       27.324909       13.271972
  O           11.608204       19.615420       18.017457
  S           10.769051       19.672543       16.843933
  O           11.136314       19.013818       15.605426
  C            9.121174       19.170145       17.301207
  C            8.215418       20.303382       16.826570
  C            8.990571       21.597923       17.073754
  C           10.370083       21.374701       16.492962
  H            8.875149       18.212708       16.832926
  H            9.083590       19.073152       18.389040
  H            7.257617       20.299022       17.357699
  H            8.008874       20.196776       15.754528
  H            9.059650       21.778093       18.159648
  H            8.498316       22.461804       16.624870
  H           11.129460       22.028312       16.933688
  H           10.362666       21.497673       15.405340
  O           30.428451        3.459646       30.593241
  S           29.920798        2.383597       29.775313
  O           30.659391        1.150283       29.585269
  C           28.268263        1.992131       30.316500
  C           27.409818        2.070503       29.056806
  C           27.963458        3.237054       28.238000
  C           29.461383        3.030066       28.178217
  H           28.247247        1.000206       30.777090
  H           27.959664        2.747037       31.043882
  H           26.352289        2.215675       29.301871
  H           27.499746        1.141071       28.481159
  H           27.730641        4.184498       28.752341
  H           27.522072        3.283502       27.241446
  H           30.012599        3.955611       27.984240
  H           29.724141        2.278919       27.426661
  O           33.150593        2.912658       14.009014
  S           34.338322        3.671492       13.695851
  O           35.302667        4.041693       14.713540
  C           35.191009        2.861455       12.356536
  C           35.383769        3.943629       11.297460
  C           34.116322        4.798268       11.328576
  C           33.875091        5.132613       12.784675
  H           36.139594        2.446544       12.709432
  H           34.551031        2.059690       11.979970
  H           35.552480        3.508192       10.306787
  H           36.252891        4.564589       11.547130
  H           33.272698        4.211363       10.928274
  H           34.213877        5.697395       10.718532
  H           32.830973        5.382666       12.997725
  H           34.525235        5.949819       13.112679
  O            1.740419       11.800710       32.687799
  S            2.747879       12.723807       32.221412
  O            4.080032       12.284244       31.854190
  C            2.063172       13.680000       30.882057
  C            2.284992       15.136493       31.281210
  C            2.066519       15.200042       32.793172
  C            2.886786       14.071921       33.380288
  H            2.560115       13.422531       29.942240
  H            0.996056       13.454891       30.812855
  H            1.602848       15.806062       30.746554
  H            3.312257       15.439775       31.044469
  H            0.996576       15.046313       33.012236
  H            2.354404       16.167057       33.208026
  H            2.527848       13.749977       34.362945
  H            3.944025       14.347858       33.445133
  O           20.456754       21.763092        7.555444
  S           19.478750       21.395755        6.558865
  O           19.768301       20.425346        5.520998
  C           17.973586       20.924721        7.389292
  C           16.884648       21.785371        6.754156
  C           17.520363       23.151800        6.496202
  C           18.834653       22.874758        5.799002
  H           17.790549       19.854095        7.259840
  H           18.082464       21.158128        8.451302
  H           16.007354       21.864981        7.404937
  H           16.562163       21.343788        5.803206
  H           17.700190       23.656446        7.460254
  H           16.874733       23.797455        5.899216
  H           19.556975       23.689536        5.910753
  H           18.678310       22.662490        4.736647
  O           33.624696       26.976373       30.309854
  S           33.897255       27.904121       31.382046
  O           33.723616       27.539473       32.774734
  C           35.537173       28.564831       31.155922
  C           35.360090       30.080764       31.177990
  C           34.040292       30.364241       30.459955
  C           33.022675       29.427165       31.073587
  H           36.200110       28.208600       31.949720
  H           35.908129       28.231669       30.183505
  H           36.200441       30.588713       30.692914
  H           35.300182       30.438064       32.213388
  H           34.157769       30.147031       29.385050
  H           33.737890       31.407970       30.556304
  H           32.169405       29.233962       30.415786
  H           32.668246       29.808640       32.036373
  O           15.299801       20.389566        9.359512
  S           15.470790       20.858297       10.714376
  O           16.766086       21.256073       11.230789
  C           14.300587       22.169460       11.011829
  C           13.547707       21.750299       12.271740
  C           13.375676       20.233888       12.178449
  C           14.741949       19.679964       11.836883
  H           14.824341       23.121984       11.133810
  H           13.623915       22.223601       10.155452
  H           12.582392       22.261769       12.349620
  H           14.136365       22.000022       13.163043
  H           12.658055       19.998622       11.374665
  H           12.987359       19.808266       13.104816
  H           14.696231       18.696595       11.358350
  H           15.378383       19.629167       12.725967
  O            9.725188       28.848375       32.803551
  S            9.139700       29.394930       34.004834
  O            9.636130       30.613392       34.614430
  C            7.380508       29.544267       33.760008
  C            6.752308       28.806841       34.939613
  C            7.643937       27.593401       35.204870
  C            9.061909       28.120256       35.249364
  H            7.092926       30.599010       33.723754
  H            7.124697       29.055926       32.816459
  H            5.720857       28.509695       34.722099
  H            6.738830       29.454503       35.824854
  H            7.531774       26.872614       34.377655
  H            7.374065       27.081539       36.129676
  H            9.809960       27.350707       35.034157
  H            9.277678       28.585309       36.216457
  O           29.276884       24.339368       36.200008
  S           29.808904       23.906764       34.929415
  O           29.508422       24.604551       33.694301
  C           31.576453       23.736827       35.083978
  C           31.881443       22.319384       34.606761
  C           30.727566       21.447298       35.102578
  C           29.458747       22.172236       34.709181
  H           32.082517       24.499018       34.484424
  H           31.839845       23.856507       36.137781
  H           32.845844       21.967666       34.988500
  H           31.920056       22.290923       33.510860
  H           30.788008       21.354572       36.199915
  H           30.764866       20.441334       34.682166
  H           28.598156       21.890336       35.324011
  H           29.226293       22.010963       33.651799
  O           22.308737       17.204836       19.508022
  S           21.704936       18.473762       19.176584
  O           21.696251       19.585617       20.107391
  C           22.369970       19.027443       17.618326
  C           21.150416       19.307784       16.744257
  C           20.125153       18.226529       17.087072
  C           20.041339       18.196032       18.597782
  H           22.991711       19.914946       17.767578
  H           22.971363       18.218039       17.197147
  H           21.409539       19.295169       15.680210
  H           20.736631       20.295840       16.980538
  H           20.481231       17.254655       16.706194
  H           19.153479       18.425021       16.632593
  H           19.672189       17.241282       18.985443
  H           19.417335       19.013369       18.972855
  O           17.025531        4.727149        8.331728
  S           15.824494        5.496663        8.555237
  O           14.584488        4.877026        8.980836
  C           16.210485        6.840301        9.660971
  C           15.731053        8.097196        8.939680
  C           16.036655        7.878484        7.457596
  C           15.500320        6.504195        7.120145
  H           15.710949        6.692619       10.622820
  H           17.293651        6.864230        9.803732
  H           16.227386        8.993862        9.325872
  H           14.650076        8.221977        9.078310
  H           17.128323        7.909101        7.303570
  H           15.591274        8.651272        6.829476
  H           15.983389        6.061067        6.243571
  H           14.416379        6.531755        6.970435
  O           32.015439       31.386811       29.187983
  S           31.292628       32.431663       29.873860
  O           31.545398       32.753378       31.265013
  C           31.399553       33.923984       28.905074
  C           29.954167       34.374377       28.710381
  C           29.133094       33.097745       28.526400
  C           29.542149       32.173523       29.652760
  H           32.004480       34.670507       29.427824
  H           31.861126       33.675866       27.946123
  H           29.856524       35.044384       27.849534
  H           29.604112       34.912404       29.599925
  H           29.381356       32.643531       27.552513
  H           28.060399       33.296066       28.536063
  H           29.351694       31.118940       29.429863
  H           29.044037       32.449567       30.587525
  O           17.069292        7.008816        3.381106
  S           16.385446        6.327262        2.307588
  O           16.224891        6.927184        0.997238
  C           17.101732        4.706029        2.119075
  C           15.922197        3.740307        2.196401
  C           14.969722        4.316979        3.244276
  C           14.791326        5.776576        2.886575
  H           17.637127        4.638524        1.167606
  H           17.793843        4.540302        2.948362
  H           16.249650        2.729430        2.461733
  H           15.413848        3.687973        1.225760
  H           15.428684        4.223420        4.242775
  H           14.016362        3.787157        3.266495
  H           14.478009        6.389267        3.737776
  H           14.079050        5.894874        2.063916
  O           29.180549       27.409301        1.066739
  S           28.588039       26.971144        2.308331
  O           29.395336       26.562184        3.441346
  C           27.419372       28.205478        2.844647
  C           26.114325       27.445550        3.066604
  C           26.045324       26.389535        1.963033
  C           27.390084       25.695408        1.966131
  H           27.779015       28.695520        3.754051
  H           27.308647       28.941110        2.044156
  H           25.250067       28.117599        3.036467
  H           26.126903       26.953495        4.046922
  H           25.876729       26.887826        0.993661
  H           25.227059       25.685512        2.120812
  H           27.625657       25.217293        1.010092
  H           27.449246       24.957873        2.772754
  O           25.409009        7.608237       23.451455
  S           25.979494        6.740279       22.448562
  O           25.377225        6.581374       21.139088
  C           27.699966        7.160778       22.248170
  C           28.453505        5.846735       22.436242
  C           27.712705        5.086610       23.536799
  C           26.248329        5.126112       23.157006
  H           27.867804        7.602821       21.261799
  H           27.969102        7.877405       23.028050
  H           29.501622        6.021189       22.701791
  H           28.431835        5.263700       21.507318
  H           27.869586        5.599007       24.500768
  H           28.075082        4.063073       23.642411
  H           25.581461        4.985224       24.013474
  H           26.022490        4.382295       22.386400
  O           19.876020       10.871696       14.425261
  S           18.519893       11.279661       14.144039
  O           18.161405       12.671775       13.953758
  C           17.919108       10.331839       12.759233
  C           16.612383        9.708519       13.242807
  C           16.835992        9.338600       14.709421
  C           17.430552       10.567295       15.362879
  H           17.777510       10.981394       11.890597
  H           18.656247        9.558460       12.529643
  H           16.340636        8.833404       12.642951
  H           15.796436       10.437775       13.167204
  H           17.545366        8.496081       14.767319
  H           15.911707        9.028182       15.198745
  H           17.996456       10.336091       16.270842
  H           16.654969       11.305913       15.588744
  O           36.201636       13.344181       27.328849
  S           35.639781       14.672575       27.263369
  O           36.198165       15.779602       28.015298
  C           35.503097       15.145729       25.550347
  C           34.045351       15.560425       25.368951
  C           33.221383       14.601964       26.229316
  C           33.888598       14.583154       27.587502
  H           36.200927       15.957779       25.326498
  H           35.737611       14.273181       24.935642
  H           33.745233       15.517264       24.316541
  H           33.899678       16.589111       25.720924
  H           33.247607       13.595657       25.778696
  H           32.176450       14.907989       26.296870
  H           33.666759       13.676573       28.159339
  H           33.612622       15.466067       28.172653
  O           22.464439        9.870388       11.083475
  S           21.434007        8.893712       10.820961
  O           20.687197        8.260144       11.890338
  C           20.287788        9.582712        9.642631
  C           20.208839        8.553421        8.518252
  C           21.622202        7.993202        8.355892
  C           22.087966        7.627919        9.748670
  H           19.318647        9.759351       10.118094
  H           20.700492       10.526107        9.276732
  H           19.844088        9.003560        7.588827
  H           19.521665        7.744569        8.795469
  H           22.274992        8.772850        7.928793
  H           21.647383        7.134556        7.683440
  H           23.178326        7.596906        9.839511
  H           21.663218        6.670341       10.066054
  O            9.987743       14.157463       19.175246
  S            8.950186       14.552484       20.098303
  O            7.583944       14.775975       19.666869
  C            8.946367       13.411718       21.467843
  C            9.055947       14.287442       22.713235
  C            9.999493       15.432783       22.344840
  C            9.500650       15.974483       21.022752
  H            8.031841       12.811709       21.456406
  H            9.819514       12.761516       21.372707
  H            9.428677       13.717812       23.571194
  H            8.071091       14.692032       22.977177
  H           11.023147       15.038006       22.232219
  H           10.024887       16.205732       23.114259
  H           10.275800       16.502080       20.458054
  H            8.637503       16.631647       21.168401
  O           22.232359       27.113672       22.657203
  S           21.330137       27.144189       23.783997
  O           21.597169       27.951000       24.958923
  C           19.691554       27.513289       23.187500
  C           18.808771       26.395974       23.737230
  C           19.651029       25.121305       23.677062
  C           20.984075       25.473100       24.301104
  H           19.378606       28.503004       23.532503
  H           19.712656       27.489202       22.095174
  H           17.883852       26.295990       23.159279
  H           18.536451       26.608653       24.778339
  H           19.790152       24.827415       22.623177
  H           19.170762       24.288659       24.192953
  H           21.794600       24.812926       23.976573
  H           20.919200       25.469190       25.393750
  O           30.202504       21.024250       14.450362
  S           28.802813       20.675442       14.388745
  O           28.350443       19.412609       13.838005
  C           28.094511       20.887510       16.010576
  C           26.889140       21.800062       15.800264
  C           27.303572       22.810524       14.730211
  C           27.904449       21.999916       13.602354
  H           27.816946       19.916518       16.430852
  H           28.839745       21.369811       16.647923
  H           26.595766       22.296182       16.731552
  H           26.032139       21.215937       15.442988
  H           28.058867       23.495460       15.150677
  H           26.461362       23.414385       14.389425
  H           28.585009       22.582668       12.973595
  H           27.122516       21.549985       12.982482
  O           27.168501       12.801923        8.364208
  S           26.650483       12.060990        9.489941
  O           26.963526       12.425819       10.858006
  C           24.881535       11.929225        9.315409
  C           24.582936       10.436171        9.422776
  C           25.732228        9.721423        8.711393
  C           27.004530       10.328242        9.262046
  H           24.381226       12.513777       10.092898
  H           24.606785       12.309846        8.328575
  H           23.614824       10.188653        8.974451
  H           24.556067       10.132128       10.476405
  H           25.660141        9.908206        7.626813
  H           25.700326        8.641826        8.864862
  H           27.858750       10.213569        8.587318
  H           27.248419        9.906360       10.242165
  O            9.339899       27.665904        3.973544
  S            9.369235       27.176208        5.331461
  O           10.592893       27.143285        6.108814
  C            8.111055       28.024473        6.266571
  C            7.275638       26.916624        6.902692
  C            7.191543       25.798572        5.863131
  C            8.609113       25.564155        5.388007
  H            8.572027       28.681299        7.009931
  H            7.508526       28.614142        5.571267
  H            6.281855       27.278393        7.187328
  H            7.771757       26.542446        7.806660
  H            6.558844       26.130710        5.023026
  H            6.747826       24.890473        6.273705
  H            8.655987       25.101051        4.397331
  H            9.168625       24.957066        6.106679
  O           20.085289       27.572934        4.859221
  S           21.090449       26.643678        4.400158
  O           21.835237       25.803878        5.318159
  C           20.376349       25.620201        3.127541
  C           21.325036       25.746793        1.938479
  C           21.801514       27.199608        1.928675
  C           22.242187       27.502955        3.344298
  H           20.282446       24.589312        3.481023
  H           19.389881       26.020675        2.881167
  H           20.828044       25.478903        1.000005
  H           22.184707       25.078140        2.069517
  H           20.961896       27.855203        1.642953
  H           22.607446       27.361198        1.211415
  H           22.225612       28.572515        3.576391
  H           23.239905       27.097625        3.540175
  O            3.442052        7.069178       23.023744
  S            4.328509        8.205522       22.937059
  O            3.836737        9.543623       22.671828
  C            5.347456        8.241586       24.399059
  C            6.782049        8.298939       23.880837
  C            6.819100        7.412425       22.635638
  C            5.640356        7.837058       21.786845
  H            5.090034        9.106692       25.016980
  H            5.173734        7.319260       24.958823
  H            7.495204        7.959053       24.639380
  H            7.043072        9.328760       23.607644
  H            6.709828        6.357329       22.937684
  H            7.761444        7.506508       22.094125
  H            5.311731        7.057380       21.092433
  H            5.865398        8.754143       21.233302
  O           35.730506        8.170130       21.829147
  S           34.594573        8.658838       21.083881
  O           33.261312        8.694099       21.652977
  C           34.992294       10.272049       20.438615
  C           34.718584       10.177826       18.939914
  C           35.156252        8.775479       18.516039
  C           34.525399        7.824170       19.509637
  H           34.381586       11.035555       20.929118
  H           36.051283       10.463787       20.628298
  H           35.257464       10.953456       18.385381
  H           33.646674       10.304041       18.744011
  H           36.255738        8.706716       18.568977
  H           34.858496        8.545832       17.491977
  H           35.052360        6.867217       19.577850
  H           33.471470        7.649611       19.271176
  O           16.127372       13.507497       13.877921
  S           16.303123       14.200245       12.623404
  O           17.617313       14.463018       12.069729
  C           15.303615       13.394645       11.386879
  C           14.451794       14.506397       10.779996
  C           14.086576       15.439496       11.934874
  C           15.381266       15.726095       12.664146
  H           15.942219       12.904207       10.646503
  H           14.675196       12.653054       11.886211
  H           13.559420       14.103778       10.289011
  H           15.031408       15.058276       10.029811
  H           13.377556       14.926368       12.605986
  H           13.608571       16.355699       11.585327
  H           15.226621       16.034128       13.703040
  H           15.968938       16.484501       12.137303
  O           26.533441       34.066068       16.768865
  S           27.889904       33.658854       17.049553
  O           28.565425       32.646086       16.261726
  C           28.914669       35.115387       17.122819
  C           29.629117       35.029863       18.468980
  C           28.612524       34.449714       19.452730
  C           28.026295       33.230173       18.775047
  H           29.610597       35.129776       16.279031
  H           28.264095       35.992564       17.083910
  H           29.989579       36.011805       18.793569
  H           30.493878       34.359072       18.394623
  H           27.822998       35.196314       19.641510
  H           29.068059       34.198995       20.411754
  H           27.040378       32.958000       19.164904
  H           28.703856       32.374061       18.853046
  O           34.879391        5.079741       27.951665
  S           33.595512        5.269384       28.584350
  O           32.832100        4.158423       29.118829
  C           33.764875        6.516745       29.846255
  C           32.685489        7.548817       29.530575
  C           32.623310        7.644903       28.005878
  C           32.545094        6.220189       27.501625
  H           33.640943        6.070179       30.837073
  H           34.760868        6.957769       29.758531
  H           32.913177        8.518052       29.986910
  H           31.716440        7.211113       29.918131
  H           33.541785        8.129812       27.634842
  H           31.774066        8.240256       27.667588
  H           32.890289        6.113725       26.468375
  H           31.527983        5.826416       27.593976
  O           17.879882       16.632314       14.377533
  S           18.710532       16.663120       13.196994
  O           18.147611       16.779615       11.865736
  C           19.954408       17.921414       13.412564
  C           21.282497       17.213377       13.158074
  C           21.137420       15.812590       13.753513
  C           19.824784       15.271336       13.229841
  H           19.779746       18.747504       12.717174
  H           19.898743       18.283320       14.442187
  H           22.119020       17.758422       13.608248
  H           21.468531       17.137695       12.079666
  H           21.106416       15.887015       14.853467
  H           21.975336       15.166325       13.488300
  H           19.406792       14.481052       13.861374
  H           19.932213       14.906330       12.203523
  O           30.920430        3.084341        4.455828
  S           31.243225        4.034187        3.417467
  O           31.384267        3.635920        2.030315
  C           30.094435        5.393412        3.516402
  C           30.966136        6.643613        3.600266
  C           32.170739        6.263899        4.461979
  C           32.689962        4.958298        3.899827
  H           29.438681        5.397526        2.640919
  H           29.500644        5.272744        4.425826
  H           30.414578        7.487847        4.027527
  H           31.306598        6.933427        2.598570
  H           31.841380        6.124566        5.505295
  H           32.938108        7.039284        4.457163
  H           33.268979        4.380757        4.627347
  H           33.290954        5.129298        3.001123
  O           16.539303       22.379187       31.864756
  S           15.547926       21.867397       30.948326
  O           15.662061       20.550764       30.351541
  C           13.942250       22.023077       31.706328
  C           13.095985       22.783952       30.689074
  C           14.025599       23.817270       30.051994
  C           15.275889       23.063286       29.653897
  H           13.535118       21.033687       31.934039
  H           14.054275       22.600601       32.627260
  H           12.230486       23.258356       31.163787
  H           12.725460       22.097084       29.918215
  H           14.270291       24.593395       30.796410
  H           13.562839       24.312010       29.196899
  H           16.153530       23.710870       29.561801
  H           15.122231       22.513897       28.719734
  O           22.572392       21.906971       29.369190
  S           21.498583       21.792002       28.410902
  O           21.600038       22.346487       27.074881
  C           21.026437       20.077335       28.292596
  C           19.520296       20.063130       28.540060
  C           19.256644       21.120038       29.613015
  C           19.984634       22.366247       29.157830
  H           21.293483       19.679561       27.309254
  H           21.553200       19.523742       29.073785
  H           19.176265       19.072624       28.856354
  H           18.984878       20.330160       27.620646
  H           19.666265       20.770426       30.575502
  H           18.190496       21.303671       29.753398
  H           20.217217       23.049179       29.981000
  H           19.413515       22.895540       28.388562
  O            4.406472       27.355686       31.895386
  S            3.203357       27.949161       32.429149
  O            2.619153       27.506002       33.680155
  C            3.420954       29.717356       32.485194
  C            2.220895       30.288228       31.734286
  C            1.953605       29.331667       30.571812
  C            1.940050       27.941935       31.170696
  H            3.467126       30.058988       33.523296
  H            4.353216       29.962851       31.970588
  H            2.417061       31.306479       31.381888
  H            1.344671       30.320703       32.393433
  H            2.768708       29.419995       29.834109
  H            1.017391       29.560300       30.060608
  H            2.156914       27.159061       30.437090
  H            0.983258       27.734860       31.660360
  O           31.429208       27.729107       27.686335
  S           31.164180       26.694820       28.658245
  O           32.193924       25.773575       29.098284
  C           30.405499       27.442000       30.087624
  C           29.121462       26.648590       30.314888
  C           28.573436       26.321309       28.925516
  C           29.738106       25.757816       28.140521
  H           31.084891       27.394183       30.943568
  H           30.180362       28.484320       29.848703
  H           28.399307       27.218169       30.909508
  H           29.343532       25.718134       30.851764
  H           28.208171       27.247865       28.451727
  H           27.738959       25.620012       28.969447
  H           29.609059       25.853527       27.057800
  H           29.916044       24.709514       28.400333
  O           17.391905       34.208898       18.131932
  S           17.995805       33.866335       16.866011
  O           19.135979       32.974910       16.776211
  C           16.717788       33.285308       15.767794
  C           16.856437       34.140392       14.511009
  C           17.225165       35.544279       14.991573
  C           18.365058       35.363419       15.970415
  H           16.850372       32.218492       15.565743
  H           15.751337       33.455949       16.248476
  H           15.930624       34.144492       13.925900
  H           17.658088       33.746778       13.874046
  H           16.355638       35.994339       15.499281
  H           17.502713       36.200048       14.165114
  H           18.460707       36.197458       16.672791
  H           19.313292       35.212011       15.445031
  O            8.718433        3.535108        5.663485
  S            8.781570        2.300336        6.409107
  O            8.885541        1.011870        5.752035
  C           10.078816        2.438028        7.623682
  C            9.415634        2.087843        8.953141
  C            8.008229        2.682495        8.894826
  C            7.426757        2.246974        7.567267
  H           10.901846        1.761872        7.374813
  H           10.434139        3.471435        7.627689
  H            9.985684        2.482898        9.800770
  H            9.350851        0.998693        9.066520
  H            8.076720        3.782442        8.937555
  H            7.390836        2.355824        9.732807
  H            6.620458        2.900530        7.219639
  H            7.070011        1.213275        7.615201
  O            4.772212       31.949866       31.125594
  S            4.472563       33.199099       31.784553
  O            4.184451       33.267844       33.204048
  C            5.762255       34.366980       31.397577
  C            5.036029       35.590479       30.844814
  C            3.867770       35.052746       30.017884
  C            3.172418       34.032855       30.893388
  H            6.345741       34.595378       32.294169
  H            6.408002       33.922329       30.636331
  H            5.704527       36.213516       30.241129
  H            4.652188       36.204840       31.668542
  H            4.259637       34.568612       29.107690
  H            3.188201       35.846680       29.704906
  H            2.593301       33.302248       30.319857
  H            2.525652       34.522332       31.628375
  O           13.900034       18.776901       31.045598
  S           14.586795       18.019002       30.026506
  O           14.292018       18.186279       28.616604
  C           16.342757       18.195344       30.276510
  C           16.878756       16.767719       30.343529
  C           15.821245       15.952001       31.087892
  C           14.499599       16.284227       30.429807
  H           16.784372       18.770944       29.457877
  H           16.501909       18.714433       31.224886
  H           17.849028       16.728148       30.849995
  H           17.008407       16.366028       29.331040
  H           15.806082       16.257881       32.147424
  H           16.031340       14.882025       31.054547
  H           13.640128       16.101666       31.082557
  H           14.377046       15.730352       29.493696
  O           27.758115       18.772102       35.614351
  S           27.363540       17.887983       34.543256
  O           27.957227       17.969924       33.222832
  C           27.475729       16.207266       35.126013
  C           26.105002       15.597796       34.843965
  C           25.084847       16.703732       35.115974
  C           25.588403       17.925447       34.378380
  H           28.282951       15.681491       34.607888
  H           27.676120       16.231221       36.200010
  H           25.922242       14.717622       35.469578
  H           26.039794       15.286710       33.794072
  H           25.045830       16.903139       36.200001
  H           24.081065       16.422837       34.794071
  H           25.200965       18.862512       34.790572
  H           25.351606       17.865092       33.311429
  O           25.834247       31.480963       21.318503
  S           26.478361       30.795448       22.413851
  O           27.727688       30.079578       22.242355
  C           26.644852       31.934174       23.774947
  C           26.007927       31.223525       24.966251
  C           24.799298       30.467962       24.412951
  C           25.299368       29.713239       23.200300
  H           27.699737       32.170058       23.942506
  H           26.094446       32.845083       23.526958
  H           25.716557       31.934272       25.746918
  H           26.718377       30.511639       25.404176
  H           24.022676       31.192704       24.116291
  H           24.361561       29.797409       25.153792
  H           24.501321       29.464087       22.493799
  H           25.829071       28.802137       23.495948
  O            0.996674       24.128181       24.894321
  S            2.229317       24.201007       24.146064
  O            2.862132       25.467228       23.831531
  C            3.426185       23.131507       24.921097
  C            3.923048       22.217690       23.803974
  C            2.706094       21.917939       22.928205
  C            2.057938       23.255574       22.643904
  H            4.230133       23.724995       25.366001
  H            2.916440       22.554420       25.696552
  H            4.367029       21.300442       24.205268
  H            4.687562       22.731852       23.208612
  H            2.009610       21.268358       23.484403
  H            2.981233       21.398952       22.008939
  H            0.998399       23.169441       22.383024
  H            2.591509       23.789746       21.851401
  O           25.502321       11.622449       27.372520
  S           26.256139       12.119612       26.245937
  O           25.919145       11.765102       24.880852
  C           26.362530       13.894190       26.374604
  C           27.853342       14.209288       26.284647
  C           28.570039       13.089011       27.039052
  C           27.988986       11.794518       26.512874
  H           25.785331       14.365696       25.573965
  H           25.961361       14.190411       27.346982
  H           28.080794       15.192273       26.710681
  H           28.175308       14.211750       25.236014
  H           28.363518       13.187826       28.117933
  H           29.651655       13.130883       26.903206
  H           28.102664       10.960347       27.212400
  H           28.430900       11.529864       25.547073
  O            6.050908       26.688243       16.992342
  S            5.673234       28.080295       16.927906
  O            4.495135       28.587633       17.604213
  C            7.080242       29.070812       17.392883
  C            7.264710       30.060382       16.245441
  C            6.940110       29.290509       14.964922
  C            5.621481       28.593470       15.220957
  H            6.892202       29.567840       18.348971
  H            7.947578       28.411777       17.480064
  H            8.282259       30.464996       16.225919
  H            6.568114       30.900425       16.356715
  H            7.733054       28.547273       14.777191
  H            6.887853       29.946667       14.094965
  H            5.468985       27.719911       14.579288
  H            4.782303       29.286916       15.106887
  O           26.574523       28.353336       29.425860
  S           26.221010       29.709780       29.079901
  O           26.621463       30.309875       27.822036
  C           24.460755       29.904970       29.280903
  C           24.298356       31.115004       30.197061
  C           25.436339       31.032299       31.214880
  C           26.697004       30.795673       30.411804
  H           23.983644       30.049308       28.307234
  H           24.069600       29.002514       29.757108
  H           23.318650       31.117385       30.686623
  H           24.389591       32.041627       29.617108
  H           25.253943       30.183705       31.895336
  H           25.508227       31.935324       31.822727
  H           27.495241       30.329701       30.998137
  H           27.060379       31.727878       29.967897
  O           11.198041       18.004623       23.768152
  S           12.493151       18.578563       24.047227
  O           12.659034       19.686226       24.968241
  C           13.605725       17.266086       24.512610
  C           14.806600       17.416155       23.582406
  C           14.242217       17.839385       22.225886
  C           13.295831       18.986111       22.507970
  H           13.878557       17.359271       25.567778
  H           13.099329       16.312902       24.341721
  H           15.375063       16.482869       23.509407
  H           15.480682       18.194829       23.960004
  H           13.692342       16.992988       21.781307
  H           15.028893       18.127510       21.527154
  H           12.542580       19.120098       21.725181
  H           13.845288       19.921118       22.656158
  O           21.325468       10.493400        6.943288
  S           20.351594       11.558546        6.902849
  O           19.447428       11.813652        8.007432
  C           21.187285       13.073918        6.475922
  C           20.420693       13.624762        5.276419
  C           20.019052       12.412044        4.436301
  C           19.400022       11.423774        5.400835
  H           21.182422       13.760217        7.327668
  H           22.216194       12.830075        6.200081
  H           21.030557       14.329715        4.701433
  H           19.520683       14.152843        5.614668
  H           20.920186       11.977200        3.972331
  H           19.329513       12.679848        3.634481
  H           19.434320       10.392490        5.035626
  H           18.366801       11.698717        5.635273
  O           19.113098       11.136019       22.888366
  S           20.023099       10.933715       23.990895
  O           21.384983       10.478962       23.787985
  C           20.048037       12.414016       24.983411
  C           19.741982       11.944334       26.403139
  C           18.706779       10.827411       26.266615
  C           19.243820        9.888945       25.207809
  H           21.022689       12.904329       24.905007
  H           19.264435       13.082636       24.618562
  H           19.369644       12.765696       27.024612
  H           20.650727       11.548766       26.873254
  H           17.746551       11.260284       25.939531
  H           18.533317       10.312277       27.212473
  H           18.460888        9.290769       24.731047
  H           20.012741        9.229006       25.621741
  O           20.823262       32.925760        3.673672
  S           20.736260       31.561444        3.209265
  O           21.901706       30.702294        3.129927
  C           19.463396       30.727496        4.137354
  C           18.531416       30.132258        3.085212
  C           18.459957       31.157389        1.953046
  C           19.892298       31.531309        1.638749
  H           19.906575       29.964961        4.784373
  H           18.939938       31.471349        4.743055
  H           17.540663       29.921564        3.501767
  H           18.945910       29.190877        2.704033
  H           17.902928       32.043684        2.300322
  H           17.943661       30.763671        1.076391
  H           19.981686       32.509088        1.154955
  H           20.370431       30.766793        1.018261
  O           19.281745       34.843116       33.557402
  S           18.807594       33.950018       32.526792
  O           19.623346       32.864900       32.017120
  C           17.224275       33.300429       33.024925
  C           16.288389       33.598426       31.856500
  C           16.703423       34.968418       31.319221
  C           18.206324       34.911963       31.150988
  H           17.304922       32.229974       33.234977
  H           16.904430       33.833215       33.923834
  H           15.239583       33.589600       32.171824
  H           16.412675       32.842021       31.071833
  H           16.431885       35.744306       32.054520
  H           16.200842       35.209718       30.381518
  H           18.674380       35.901355       31.162191
  H           18.478808       34.384533       30.231385
  O           32.387132       26.947467       22.010330
  S           32.505503       26.951970       20.571384
  O           33.676009       26.425785       19.896296
  C           31.047990       26.193016       19.880987
  C           30.508036       27.210517       18.879468
  C           30.740424       28.586139       19.505135
  C           32.182639       28.596943       19.963501
  H           31.305686       25.239085       19.411830
  H           30.332846       26.028544       20.690751
  H           29.447649       27.038150       18.666468
  H           31.059692       27.137957       17.934105
  H           30.065901       28.710887       20.368765
  H           30.533656       29.395243       18.803211
  H           32.372470       29.325823       20.757730
  H           32.860070       28.780625       19.123592
  O           23.145015       34.410341        3.587360
  S           24.037514       34.332628        2.455103
  O           23.765276       35.031900        1.214295
  C           25.683539       34.742543        3.002434
  C           26.554449       33.573965        2.548739
  C           25.704769       32.315897        2.730704
  C           24.368546       32.619274        2.088311
  H           25.999658       35.694832        2.566870
  H           25.671846       34.817346        4.092603
  H           27.483746       33.520073        3.125803
  H           26.818976       33.689834        1.490486
  H           25.573034       32.119366        3.807932
  H           26.175269       31.436705        2.288265
  H           23.556767       31.996826        2.477763
  H           24.423830       32.516252        0.999995
  O           11.405962       19.531776       32.945281
  S           11.336190       20.637124       33.871530
  O           12.514376       21.387742       34.260314
  C           10.086033       21.773636       33.303686
  C            9.153346       21.965142       34.496715
  C            9.054350       20.601437       35.181046
  C           10.477364       20.112778       35.343664
  H           10.547700       22.710239       32.977898
  H            9.556758       21.309008       32.468109
  H            8.170244       22.330486       34.181223
  H            9.579046       22.697105       35.194074
  H            8.486686       19.911190       34.534737
  H            8.535786       20.660897       36.138990
  H           10.546340       19.024742       35.441231
  H           10.961505       20.592153       36.200347
  O            4.550779       31.464614        7.038447
  S            4.329356       32.883833        6.892194
  O            4.940325       33.851369        7.782863
  C            4.685379       33.341716        5.206789
  C            3.434904       34.070251        4.721556
  C            2.247609       33.339034        5.348814
  C            2.575466       33.197317        6.819401
  H            5.579048       33.971262        5.167703
  H            4.848978       32.426818        4.631988
  H            3.373776       34.074998        3.628056
  H            3.448825       35.112066        5.064670
  H            2.147205       32.343961        4.883897
  H            1.309400       33.873695        5.193889
  H            2.035227       32.375404        7.299714
  H            2.381390       34.131063        7.356572
  O           11.490512        5.973793       33.647357
  S           10.926259        6.446054       34.889609
  O           11.663752        6.391504       36.136937
  C           10.325219        8.105950       34.643650
  C            8.871484        8.073799       35.107895
  C            8.317805        6.715911       34.675021
  C            9.330402        5.688342       35.132128
  H           10.931890        8.815179       35.214127
  H           10.386935        8.336632       33.577265
  H            8.295763        8.900038       34.677344
  H            8.822852        8.160053       36.200367
  H            8.224506        6.695352       33.576261
  H            7.329626        6.523954       35.095443
  H            9.277030        4.754487       34.563649
  H            9.220688        5.477456       36.200580
  O            6.127793       35.176825        9.775601
  S            5.172725       35.204625       10.858039
  O            5.235209       36.199800       11.910857
  C            3.530714       35.196556       10.164690
  C            2.819608       34.029068       10.843808
  C            3.866315       32.924844       10.995110
  C            5.084822       33.586298       11.601673
  H            3.037237       36.154514       10.352566
  H            3.615596       35.026149        9.088606
  H            1.957888       33.690637       10.258655
  H            2.458563       34.332485       11.834204
  H            4.110630       32.517261        9.999827
  H            3.505341       32.100418       11.611648
  H            6.011456       33.039216       11.401299
  H            4.961551       33.721820       12.680810
  O           19.337133        6.137834       18.908937
  S           20.411422        5.957531       17.961312
  O           21.354743        7.016899       17.660342
  C           21.314307        4.485348       18.402308
  C           21.337952        3.639589       17.131862
  C           19.976314        3.837423       16.465076
  C           19.742371        5.332190       16.431273
  H           22.317675        4.748114       18.749735
  H           20.766519        3.974735       19.198173
  H           21.527348        2.584657       17.357135
  H           22.131278        3.990410       16.460403
  H           19.199250        3.344478       17.073004
  H           19.942509        3.400646       15.465985
  H           18.682724        5.596675       16.358507
  H           20.296782        5.797781       15.610326
  O           25.235266        9.752688       20.154606
  S           24.688526       10.277782       21.383407
  O           25.435077       10.255794       22.626338
  C           24.111734       11.937303       21.082903
  C           22.661455       11.944966       21.558855
  C           22.083003       10.581595       21.178839
  C           23.082940        9.554831       21.664721
  H           24.734064       12.656551       21.623169
  H           24.168497       12.128918       20.008537
  H           22.095369       12.764496       21.103426
  H           22.622974       12.070763       22.647889
  H           21.980558       10.523493       20.082240
  H           21.095337       10.420557       21.613216
  H           23.010302        8.602337       21.130327
  H           22.978515        9.383840       22.740806
  O           21.193062       29.996085       16.515915
  S           21.506018       30.467302       17.844302
  O           22.128360       31.756717       18.074085
  C           20.038831       30.344492       18.848931
  C           20.463966       29.539886       20.074398
  C           21.442445       28.479971       19.567489
  C           22.442686       29.216128       18.702740
  H           19.674785       31.342786       19.108507
  H           19.277827       29.807641       18.277211
  H           19.601316       29.086450       20.574130
  H           20.969590       30.192466       20.796744
  H           20.893106       27.737044       18.965254
  H           21.930122       27.948379       20.385829
  H           22.938749       28.565305       17.975793
  H           23.193152       29.724286       19.316480
  O           27.644742       26.932108       17.411787
  S           26.234358       27.144410       17.636164
  O           25.234630       26.748025       16.663476
  C           25.803704       26.456788       19.223209
  C           25.114428       27.593335       19.973582
  C           25.859510       28.870966       19.585880
  C           25.962902       28.850977       18.076207
  H           25.154716       25.585891       19.093385
  H           26.726401       26.161507       19.728816
  H           25.133928       27.427665       21.056020
  H           24.065630       27.669464       19.661290
  H           26.866123       28.855172       20.036302
  H           25.349931       29.766619       19.943978
  H           26.786817       29.463614       17.696814
  H           25.022853       29.168656       17.614158
  O           31.740213       31.960528        8.968772
  S           31.589826       32.923000       10.034432
  O           31.390211       32.517156       11.412164
  C           32.953265       34.068595        9.959306
  C           32.307373       35.450940        9.916326
  C           31.051080       35.305706        9.057003
  C           30.319565       34.093014        9.590354
  H           33.604723       33.937089       10.828103
  H           33.512911       33.873141        9.041268
  H           32.992695       36.200023        9.505588
  H           32.026700       35.767298       10.928473
  H           31.346284       35.140589        8.007245
  H           30.427393       36.200169        9.089386
  H           29.646601       33.642609        8.853906
  H           29.761360       34.339562       10.499046
  O           32.420211       34.339359       22.246363
  S           31.965505       34.679558       23.573807
  O           31.720875       36.052067       23.972648
  C           30.522441       33.701761       23.945933
  C           30.840150       33.015182       25.271667
  C           32.325980       32.658305       25.219254
  C           33.040819       33.915553       24.773681
  H           29.638094       34.342612       24.007077
  H           30.394332       32.965486       23.148632
  H           30.217007       32.127082       25.421567
  H           30.655845       33.703173       26.105933
  H           32.479978       31.851908       24.482770
  H           32.695819       32.303138       26.182154
  H           34.015159       33.713537       24.317665
  H           33.160591       34.615207       25.606891
  O            4.350271        6.917169        1.616152
  S            3.269296        7.539115        2.343666
  O            2.714680        8.819106        1.947781
  C            1.943863        6.358647        2.507139
  C            1.641943        6.306482        4.002473
  C            2.990850        6.427472        4.712129
  C            3.692572        7.606992        4.074541
  H            1.080305        6.676863        1.915949
  H            2.303306        5.390460        2.149906
  H            1.124923        5.379958        4.274030
  H            0.999393        7.148879        4.286720
  H            3.571937        5.504670        4.547286
  H            2.876420        6.559457        5.788970
  H            4.780543        7.568680        4.188349
  H            3.312237        8.552593        4.473647
  O           12.256251        2.721193       13.948203
  S           12.713900        3.293276       15.192340
  O           12.143057        2.909720       16.468946
  C           14.486279        3.123672       15.275450
  C           15.006840        4.532690       15.546713
  C           14.110965        5.477584       14.745225
  C           12.688055        5.071524       15.062468
  H           14.760970        2.416359       16.063329
  H           14.839855        2.759030       14.307865
  H           16.058720        4.632825       15.258579
  H           14.924660        4.765439       16.615532
  H           14.313554        5.344587       13.669274
  H           14.296590        6.524170       14.990788
  H           11.975608        5.372896       14.288069
  H           12.372361        5.471717       16.031118
  O           27.414304       25.524984        5.152438
  S           28.280753       26.386758        5.921342
  O           28.343489       27.816643        5.688549
  C           27.978282       26.094131        7.653358
  C           29.349861       25.787296        8.248777
  C           30.097485       24.971351        7.193745
  C           29.937015       25.726720        5.892258
  H           27.510711       26.972188        8.108214
  H           27.314572       25.230582        7.742647
  H           29.262433       25.240971        9.193968
  H           29.892431       26.720143        8.445535
  H           29.636494       23.972651        7.113212
  H           31.147957       24.831844        7.452872
  H           30.063171       25.089906        5.010979
  H           30.631326       26.571319        5.840446
  O           23.336187        6.849801       11.942796
  S           24.723607        6.920766       12.336026
  O           25.768152        6.247557       11.588754
  C           25.167991        8.635076       12.537681
  C           25.761475        8.728115       13.940899
  C           24.938014        7.780366       14.813528
  C           24.867352        6.472251       14.055872
  H           25.878152        8.934465       11.761448
  H           24.257695        9.234796       12.460891
  H           25.731193        9.754925       14.320696
  H           26.808710        8.401822       13.929454
  H           23.925840        8.197421       14.947581
  H           25.376993        7.650369       15.803729
  H           24.011051        5.855977       14.347515
  H           25.792509        5.899451       14.174548
  O           27.962221       12.559868       13.220262
  S           29.233527       13.183996       12.939469
  O           29.899614       14.036322       13.905164
  C           30.372831       11.927075       12.392538
  C           30.915193       12.436727       11.059872
  C           29.742098       13.122281       10.358685
  C           29.128522       14.050427       11.384486
  H           31.160360       11.781806       13.137652
  H           29.814895       10.997652       12.254405
  H           31.324574       11.619883       10.455990
  H           31.717139       13.164844       11.233157
  H           29.008264       12.359482       10.048806
  H           30.058119       13.661133        9.464330
  H           28.083131       14.293064       11.169113
  H           29.710551       14.972794       11.477125
  O            7.517897       32.146951       31.310414
  S            8.657367       32.999876       31.552752
  O            8.522788       34.299642       32.181400
  C            9.893556       32.058671       32.426233
  C           11.166878       32.212766       31.598703
  C           10.725380       32.202465       30.134882
  C            9.580055       33.186902       30.038366
  H           10.007243       32.439466       33.445336
  H            9.571938       31.014608       32.452568
  H           11.881033       31.409834       31.810322
  H           11.653185       33.168441       31.829982
  H           10.380165       31.189853       29.866845
  H           11.541077       32.464395       29.459507
  H            8.924415       32.996144       29.182885
  H            9.949677       34.216411       29.998475
  O           30.335486       19.477082       10.266155
  S           29.914747       20.692276       10.922572
  O           29.590916       20.728355       12.335559
  C           31.106842       21.969138       10.568265
  C           30.289844       23.128321       10.003722
  C           29.190704       22.496179        9.149271
  C           28.567156       21.415446       10.005661
  H           31.648742       22.242269       11.478344
  H           31.805021       21.585925        9.820005
  H           30.915008       23.809924        9.417132
  H           29.836506       23.702878       10.820832
  H           29.642669       22.052513        8.246338
  H           28.452065       23.230157        8.824020
  H           28.065958       20.640647        9.416944
  H           27.864662       21.843369       10.727799
  O           15.157658       33.999624        7.487313
  S           16.024721       33.767010        6.356520
  O           15.553792       33.890184        4.990595
  C           17.492649       34.758325        6.555224
  C           18.654245       33.776557        6.425891
  C           18.197113       32.486320        7.107153
  C           16.823538       32.184351        6.548310
  H           17.522148       35.545051        5.795821
  H           17.470763       35.204230        7.552665
  H           19.566317       34.173474        6.884238
  H           18.864967       33.579516        5.367557
  H           18.136757       32.652234        8.195835
  H           18.892901       31.663907        6.935059
  H           16.224878       31.548334        7.207999
  H           16.895235       31.725130        5.557313
  O            9.364652        9.466607       23.439083
  S           10.409504        9.302135       22.456315
  O           10.118238        9.167037       21.042239
  C           11.606950       10.603356       22.679806
  C           12.948073        9.887943       22.819351
  C           12.668289        8.613814       23.616921
  C           11.474432        7.961341       22.954211
  H           11.583714       11.287890       21.826944
  H           11.357608       11.142612       23.596992
  H           13.689334       10.521443       23.318059
  H           13.339191        9.624100       21.829041
  H           12.425007        8.883384       24.658336
  H           13.531708        7.947420       23.639864
  H           10.929390        7.288718       23.623992
  H           11.773851        7.420665       22.050818
  O           27.870971       30.051827       14.013769
  S           27.243839       28.859759       13.493886
  O           27.997565       27.842249       12.787296
  C           26.318175       28.088189       14.807212
  C           24.908208       27.914256       14.248967
  C           24.631111       29.156506       13.401718
  C           25.836548       29.324616       12.502351
  H           26.779519       27.136064       15.084918
  H           26.314945       28.764714       15.665411
  H           24.171523       27.800694       15.051401
  H           24.861118       27.019166       13.616594
  H           24.525894       30.031882       14.064324
  H           23.708510       29.062624       12.827181
  H           25.962269       30.351499       12.144852
  H           25.788826       28.639677       11.649895
  O           16.275575       16.575634       17.900345
  S           15.345755       16.412137       16.807961
  O           15.539229       15.408276       15.779598
  C           13.704441       16.242658       17.482025
  C           12.871220       17.303397       16.767549
  C           13.783479       18.519252       16.602382
  C           15.079517       17.992220       16.025558
  H           13.329229       15.229503       17.311048
  H           13.753541       16.445461       18.554713
  H           11.967604       17.551123       17.334655
  H           12.562245       16.938002       15.780472
  H           13.964275       18.974471       17.590556
  H           13.337228       19.281856       15.962543
  H           15.932792       18.648557       16.223655
  H           14.988253       17.819478       14.948557
  O           14.817352       11.492691       27.523051
  S           15.137527       12.418811       26.462679
  O           15.182902       12.007760       25.072831
  C           14.073168       13.840705       26.612216
  C           15.016471       15.040376       26.641698
  C           16.241704       14.597125       27.441781
  C           16.656956       13.262240       26.862257
  H           13.373485       13.878113       25.772249
  H           13.522273       13.757137       27.552285
  H           14.536136       15.915902       27.091400
  H           15.319364       15.306662       25.621576
  H           15.960470       14.480624       28.501845
  H           17.049821       15.328230       27.391450
  H           17.240344       12.656028       27.562446
  H           17.218404       13.395699       25.932168
  O           35.677988       34.010679        3.536824
  S           35.093468       33.503020        2.318129
  O           35.462213       34.023165        1.015756
  C           35.265565       31.728991        2.303776
  C           33.854717       31.195951        2.068666
  C           32.916762       32.121614        2.844030
  C           33.316669       33.531370        2.466060
  H           35.964909       31.424209        1.519860
  H           35.641243       31.414752        3.280669
  H           33.759693       30.156226        2.399486
  H           33.610358       31.235176        0.999998
  H           33.061681       31.962211        3.925690
  H           31.867960       31.924806        2.617359
  H           33.022259       34.273628        3.214709
  H           32.905504       33.807662        1.489993
  O            8.582456       18.048249       35.709214
  S            7.999088       17.057545       34.835837
  O            6.563559       16.897040       34.708578
  C            8.707442       17.247428       33.211282
  C            9.236862       15.863262       32.845636
  C            9.797778       15.268610       34.137751
  C            8.726020       15.467694       35.187465
  H            7.949298       17.605346       32.508707
  H            9.524385       17.970200       33.277655
  H           10.001025       15.921172       32.063202
  H            8.419225       15.233023       32.474735
  H           10.713541       15.814118       34.420947
  H           10.060665       14.216020       34.023534
  H            9.122022       15.462520       36.207885
  H            7.938766       14.713146       35.092651
  O           18.178028       13.315632       18.625304
  S           19.254417       13.092405       17.689271
  O           19.105138       12.216720       16.543151
  C           19.860034       14.674506       17.135029
  C           21.363400       14.637007       17.396534
  C           21.546324       13.881140       18.712971
  C           20.720758       12.619111       18.586789
  H           19.621997       14.820044       16.077364
  H           19.381169       15.452330       17.734927
  H           21.785569       15.646235       17.448810
  H           21.873057       14.097962       16.588463
  H           21.168729       14.501226       19.543222
  H           22.595106       13.659156       18.915155
  H           20.437696       12.195768       19.555683
  H           21.245796       11.864370       17.992818
  O           10.270077        3.425576       22.853810
  S           11.078982        3.863579       23.966656
  O           11.554519        5.228848       24.078930
  C           10.252785        3.411210       25.479851
  C           11.289591        2.624630       26.277489
  C           12.070715        1.796159       25.257058
  C           12.463497        2.755668       24.154667
  H            9.911158        4.307540       26.005574
  H            9.397760        2.779749       25.226102
  H           10.815263        1.990278       27.033868
  H           11.971080        3.313344       26.791829
  H           11.417068        1.003371       24.856267
  H           12.942135        1.313996       25.702307
  H           12.663736        2.253293       23.203024
  H           13.332059        3.354453       24.446483
  O           24.136254       16.919931       15.476271
  S           25.256232       16.298606       16.142757
  O           25.811247       15.036028       15.694922
  C           26.570717       17.495028       16.275802
  C           26.936036       17.519135       17.757646
  C           25.620805       17.362442       18.521462
  C           24.908942       16.186676       17.888197
  H           27.412392       17.202789       15.641232
  H           26.182610       18.465255       15.956062
  H           27.451176       18.447191       18.027538
  H           27.602042       16.680502       17.995196
  H           25.020212       18.279776       18.402350
  H           25.783385       17.208763       19.589194
  H           23.826456       16.206136       18.049270
  H           25.319407       15.238430       18.249375
  O           18.078106       30.634155       20.926028
  S           16.861304       29.965341       21.321856
  O           16.853542       28.915162       22.321737
  C           15.656113       31.200171       21.768748
  C           14.425119       30.875369       20.926693
  C           14.950902       30.410555       19.568274
  C           16.016729       29.378091       19.865309
  H           15.452633       31.157372       22.842649
  H           16.058841       32.181183       21.504882
  H           13.766932       31.745208       20.828360
  H           13.850581       30.066990       21.395446
  H           15.391796       31.270094       19.036103
  H           14.157648       30.002911       18.940043
  H           16.734554       29.258486       19.047677
  H           15.568204       28.409586       20.108052
  O            3.640842       30.783913        3.622177
  S            2.380046       30.115169        3.840748
  O            1.145107       30.594384        3.250851
  C            2.579139       28.388415        3.446181
  C            2.094752       27.640416        4.685442
  C            2.550595       28.469444        5.886575
  C            2.131887       29.893690        5.592623
  H            2.001390       28.136756        2.552104
  H            3.640734       28.199136        3.269013
  H            2.497858       26.622715        4.721367
  H            0.999999       27.571239        4.679851
  H            3.648071       28.406366        5.975838
  H            2.120421       28.106735        6.821183
  H            2.720802       30.633872        6.143450
  H            1.067076       30.040391        5.799401
  O           23.347144       31.756597        6.785004
  S           23.942205       32.721132        7.679529
  O           24.309289       32.380836        9.040465
  C           25.348013       33.455571        6.866323
  C           25.109886       34.961175        6.946021
  C           23.605785       35.163264        6.759900
  C           22.934745       34.192177        7.706947
  H           26.273281       33.150573        7.363671
  H           25.355416       33.118435        5.826859
  H           25.686263       35.498100        6.185101
  H           25.413253       35.339035        7.930140
  H           23.333940       34.927179        5.717420
  H           23.303761       36.192965        6.956362
  H           21.911868       33.942417        7.407880
  H           22.936580       34.578138        8.731218
  O           22.248066       19.812384        7.585707
  S           22.629186       18.785681        6.644842
  O           23.391527       19.086193        5.448502
  C           23.442877       17.474305        7.536583
  C           22.689827       16.204594        7.148445
  C           21.217104       16.601068        7.040306
  C           21.183446       17.848810        6.184615
  H           24.501568       17.433545        7.264532
  H           23.340676       17.674406        8.606029
  H           22.840320       15.409060        7.885994
  H           23.044782       15.837971        6.177418
  H           20.825091       16.820022        8.047671
  H           20.608475       15.802399        6.613928
  H           20.286213       18.454116        6.347951
  H           21.272528       17.598992        5.122657
  O            7.591523       13.588662       31.201084
  S            7.462388       13.799090       29.778535
  O            8.404893       13.236254       28.831118
  C            5.808815       13.350062       29.287548
  C            5.270603       14.570611       28.545598
  C            5.816577       15.791954       29.285890
  C            7.299751       15.545741       29.458439
  H            5.831786       12.454438       28.659990
  H            5.225277       13.156781       30.191055
  H            4.175723       14.571493       28.518444
  H            5.635205       14.573664       27.511018
  H            5.326586       15.868467       30.271006
  H            5.621299       16.719235       28.745412
  H            7.732736       16.113094       30.288340
  H            7.844435       15.767348       28.535233
  O           13.915442       10.037803        6.514410
  S           14.424778       10.819810        7.616064
  O           14.283006       10.388449        8.993209
  C           16.138277       11.194997        7.299588
  C           16.242037       12.712376        7.428804
  C           14.950071       13.277811        6.838120
  C           13.823109       12.492305        7.473050
  H           16.777831       10.668706        8.014073
  H           16.375221       10.875183        6.281857
  H           17.125759       13.098488        6.909716
  H           16.318895       12.996133        8.485627
  H           14.952493       13.124305        5.745952
  H           14.850006       14.348392        7.022356
  H           12.906104       12.502892        6.875481
  H           13.610514       12.857329        8.482833
  O           12.960480       30.445480       23.371448
  S           12.929411       29.215605       24.127121
  O           12.442936       29.166095       25.492255
  C           12.079243       27.980359       23.163595
  C           13.039315       26.795255       23.102851
  C           14.442257       27.391441       22.984045
  C           14.538068       28.448975       24.062304
  H           11.126207       27.724063       23.635330
  H           11.902761       28.388262       22.165261
  H           12.808292       26.136198       22.259185
  H           12.967108       26.204263       24.024162
  H           14.558092       27.851723       21.988494
  H           15.219501       26.633518       23.091496
  H           15.298076       29.207453       23.849708
  H           14.730981       27.996288       25.040036
  O           35.613313       28.908736       15.852617
  S           35.307728       30.096443       16.614568
  O           36.016337       30.428068       17.835469
  C           35.354431       31.500516       15.517574
  C           34.009082       32.196249       15.707027
  C           32.977865       31.082618       15.892004
  C           33.554445       30.150165       16.935214
  H           36.199975       32.147422       15.768708
  H           35.459388       31.130856       14.494571
  H           33.764684       32.834240       14.851027
  H           34.034326       32.827474       16.603809
  H           32.844891       30.548456       14.936290
  H           32.004193       31.472198       16.192486
  H           33.139710       29.138743       16.879352
  H           33.412309       30.552814       17.943069
  O            7.968930       29.067219        2.789771
  S            7.219315       30.216215        3.239755
  O            5.865156       30.098884        3.744915
  C            8.206087       31.106267        4.427647
  C            8.251236       32.541293        3.909418
  C            8.337384       32.439800        2.386238
  C            7.252846       31.469249        1.971496
  H            7.756000       31.033584        5.421950
  H            9.206240       30.666070        4.438570
  H            9.102449       33.090350        4.325918
  H            7.334198       33.072887        4.191818
  H            9.328261       32.046219        2.104004
  H            8.216491       33.410773        1.903851
  H            7.445871       31.003417        0.999981
  H            6.273127       31.957206        1.959334
  O           25.769900       23.424914       34.687797
  S           25.364118       22.087628       34.325017
  O           25.360111       21.000330       35.284426
  C           23.766128       22.174113       33.540192
  C           23.939347       21.449702       32.207855
  C           25.339436       21.808257       31.708867
  C           26.271042       21.573869       32.878214
  H           23.008024       21.707325       34.175713
  H           23.521081       23.227013       33.380339
  H           23.167222       21.744222       31.489118
  H           23.867884       20.365230       32.356559
  H           25.358822       22.870888       31.414179
  H           25.627462       21.217329       30.838267
  H           27.200621       22.147088       32.804715
  H           26.500925       20.509527       32.989703
  O            9.797363       26.775898       28.698596
  S           10.941275       25.894973       28.704537
  O           11.280419       25.085835       29.859083
  C           10.855305       24.845637       27.266308
  C           12.201166       25.019995       26.567626
  C           12.577011       26.492892       26.732289
  C           12.386195       26.809878       28.199705
  H           10.669338       23.810076       27.565523
  H           10.039879       25.202145       26.632129
  H           12.143835       24.733872       25.511999
  H           12.959758       24.390339       27.048637
  H           11.900567       27.111062       26.118538
  H           13.598157       26.693770       26.405167
  H           12.230138       27.876607       28.389006
  H           13.232749       26.449240       28.792484
  O            8.450775        3.352748       13.893377
  S            7.886866        3.102871       12.587939
  O            8.640230        2.440502       11.540843
  C            6.325898        2.267909       12.795825
  C            5.320429        3.106487       12.011147
  C            5.730597        4.564737       12.218679
  C            7.216898        4.623039       11.939916
  H            6.395109        1.241072       12.425262
  H            6.080378        2.263735       13.860673
  H            4.295456        2.923460       12.350900
  H            5.373310        2.857311       10.944182
  H            5.527965        4.853757       13.263575
  H            5.171584        5.243070       11.572561
  H            7.708024        5.475116       12.420395
  H            7.413906        4.641699       10.863376
  O           12.084190       25.851443       14.980789
  S           11.400693       26.531885       16.055233
  O           10.631249       25.812798       17.052012
  C           12.565147       27.599314       16.880848
  C           11.910316       28.978112       16.877156
  C           11.190398       29.102290       15.533989
  C           10.386449       27.830280       15.373191
  H           12.762588       27.231693       17.891972
  H           13.490992       27.607966       16.300386
  H           12.651277       29.773157       17.012728
  H           11.181550       29.051289       17.693762
  H           11.938156       29.184156       14.727419
  H           10.556482       29.989026       15.489824
  H           10.152115       27.602830       14.328464
  H            9.462420       27.873344       15.958355
  O           29.664352        7.569355       15.345689
  S           28.957618        6.389338       15.784648
  O           27.796514        5.883442       15.078527
  C           30.135051        5.066530       15.986710
  C           29.916464        4.555240       17.408225
  C           29.613868        5.787964       18.260650
  C           28.549814        6.561004       17.512053
  H           29.966160        4.292718       15.232262
  H           31.138995        5.483280       15.874386
  H           30.794106        4.014509       17.778162
  H           29.060287        3.869995       17.434670
  H           30.528814        6.396207       18.357155
  H           29.286196        5.519934       19.266081
  H           28.525329        7.622007       17.779955
  H           27.560949        6.117846       17.666511
  O           22.749629       34.984832       10.885205
  S           21.645603       34.054474       10.897885
  O           21.551093       32.963166        9.947719
  C           21.473079       33.402999       12.547981
  C           20.014667       33.653518       12.922381
  C           19.649131       35.010550       12.320178
  C           20.113019       34.965835       10.880383
  H           21.733265       32.340656       12.563192
  H           22.143918       33.960127       13.206604
  H           19.872996       33.642747       14.008343
  H           19.375358       32.874275       12.489525
  H           20.182487       35.806047       12.867094
  H           18.580384       35.216557       12.393945
  H           20.281931       35.960321       10.455453
  H           19.403742       34.412874       10.256476
  O            0.999869        3.695254       28.809061
  S            2.082137        4.562970       28.408607
  O            2.411816        4.784620       27.014016
  C            1.870400        6.139934       29.211946
  C            3.196446        6.405173       29.919866
  C            3.675393        5.051330       30.444765
  C            3.563700        4.090287       29.281098
  H            1.627977        6.909799       28.473678
  H            1.056208        6.047884       29.935008
  H            3.078919        7.133147       30.729644
  H            3.929839        6.804841       29.208740
  H            3.017939        4.728323       31.269277
  H            4.694013        5.099694       30.832288
  H            3.486333        3.045096       29.596837
  H            4.407031        4.207156       28.593177
  O           36.074765       28.563100        8.191273
  S           35.463127       28.599481        6.883919
  O           35.912135       27.743711        5.802831
  C           33.701179       28.412459        7.077723
  C           33.092868       29.601301        6.338457
  C           34.025729       30.784644        6.597819
  C           35.423684       30.285181        6.303779
  H           33.376304       27.452299        6.666568
  H           33.468487       28.458599        8.144459
  H           32.073979       29.807757        6.683048
  H           33.051093       29.394307        5.262024
  H           33.944221       31.086249        7.655548
  H           33.768935       31.650150        5.985401
  H           36.200000       30.866491        6.811235
  H           35.617055       30.271334        5.226507
  O           24.861158       28.909739        7.034363
  S           24.602608       28.267122        8.301168
  O           25.675130       27.864515        9.190158
  C           23.436448       29.260476        9.212386
  C           22.308267       28.303091        9.587248
  C           22.132226       27.366080        8.391915
  C           23.519651       26.874753        8.039993
  H           23.920374       29.701663       10.088553
  H           23.071382       30.050416        8.551386
  H           21.383741       28.844160        9.815274
  H           22.587423       27.720579       10.473844
  H           21.703339       27.931302        7.547534
  H           21.455866       26.539891        8.615631
  H           23.601673       26.535188        7.002656
  H           23.836238       26.074940        8.716876
  O           22.844231       19.215726       24.599902
  S           23.373585       20.558624       24.631684
  O           24.145578       21.052502       25.755433
  C           24.290336       20.841561       23.129514
  C           23.697929       22.118042       22.538286
  C           22.196028       22.058122       22.818465
  C           22.059493       21.713230       24.285641
  H           25.357134       20.938025       23.351181
  H           24.123875       19.991682       22.463034
  H           23.905419       22.195823       21.465720
  H           24.129795       22.997492       23.031600
  H           21.742168       21.267273       22.198005
  H           21.696690       22.997304       22.576189
  H           21.095212       21.255733       24.528458
  H           22.218102       22.596177       24.912816
  O           19.053114        7.716632       27.730530
  S           20.077239        7.595663       28.741042
  O           19.938400        8.202866       30.050518
  C           20.473739        5.869517       28.941558
  C           21.987665        5.787624       28.764860
  C           22.341864        6.792945       27.668652
  C           21.645241        8.082533       28.045321
  H           20.146882        5.519184       29.924885
  H           19.960615        5.308203       28.156809
  H           22.305150        4.773444       28.500015
  H           22.491608        6.067580       29.698115
  H           21.962078        6.424039       26.701144
  H           23.419806        6.929676       27.571466
  H           21.477739        8.742971       27.188662
  H           22.202190        8.617415       28.821085
  O           17.953965       33.869750       22.847553
  S           18.955620       33.383285       21.928510
  O           19.435122       32.015420       21.969982
  C           18.432845       33.764205       20.267604
  C           19.606565       34.515958       19.645393
  C           20.186242       35.391946       20.756437
  C           20.357740       34.484664       21.955448
  H           18.190928       32.844026       19.727931
  H           17.549317       34.404608       20.326444
  H           19.287602       35.114027       18.785116
  H           20.368514       33.806066       19.300738
  H           19.473731       36.200684       20.990254
  H           21.129093       35.855301       20.462442
  H           20.377903       35.030411       22.904054
  H           21.261954       33.875195       21.860344
  O           11.091735       11.816456        5.829130
  S           10.732109       12.294834        7.143064
  O           11.193122       11.638555        8.351147
  C           11.124424       14.030800        7.240587
  C            9.831595       14.704350        7.693161
  C            8.696018       13.954809        6.995699
  C            8.961195       12.483718        7.231862
  H           11.948819       14.192416        7.941125
  H           11.411181       14.372336        6.242928
  H            9.826285       15.770091        7.440837
  H            9.719853       14.613041        8.780578
  H            8.723238       14.177641        5.915882
  H            7.716579       14.254065        7.371525
  H            8.485251       11.839267        6.486033
  H            8.644136       12.183937        8.235707
  O            5.654097       20.212428       33.638485
  S            4.408615       19.572640       33.990689
  O            4.342401       18.170421       34.354140
  C            3.615149       20.538861       35.261055
  C            2.212010       20.817492       34.728639
  C            2.366193       21.043749       33.224367
  C            3.205616       19.892648       32.713941
  H            3.603328       19.984932       36.204200
  H            4.175818       21.468969       35.382502
  H            1.761578       21.684821       35.222959
  H            1.562783       19.951295       34.906145
  H            2.887710       22.000263       33.052608
  H            1.401666       21.096165       32.717375
  H            3.718952       20.122439       31.774908
  H            2.600153       18.988874       32.592661
  O           20.907585        9.750613       35.346143
  S           20.796338        9.624016       33.912199
  O           19.537718        9.822328       33.219921
  C           22.042282       10.649269       33.154916
  C           22.803293        9.718566       32.214408
  C           22.891394        8.370732       32.930915
  C           21.489187        8.060227       33.407991
  H           21.573585       11.485670       32.628365
  H           22.698973       11.026315       33.942821
  H           23.796293       10.114745       31.976726
  H           22.251632        9.600201       31.273685
  H           23.574784        8.461152       33.791847
  H           23.279687        7.585911       32.280234
  H           21.470003        7.361381       34.250217
  H           20.873672        7.671171       32.590754
  O           19.245465        6.825708        3.634003
  S           20.177109        5.818710        3.183899
  O           19.914191        4.996286        2.018913
  C           21.784102        6.570417        3.012113
  C           22.721416        5.695311        3.840082
  C           21.924097        5.267357        5.072534
  C           20.597222        4.757106        4.553644
  H           22.070834        6.610749        1.957287
  H           21.733397        7.581701        3.423127
  H           23.632836        6.235834        4.116937
  H           23.014880        4.808432        3.265083
  H           21.766250        6.142581        5.724812
  H           22.448150        4.509063        5.656023
  H           19.802170        4.795042        5.305013
  H           20.692668        3.737306        4.167644
  O           16.847204       23.430366        9.475172
  S           17.057468       24.839538        9.241452
  O           16.619135       25.488524        8.021050
  C           16.424579       25.745990       10.639591
  C           17.582571       26.629492       11.096076
  C           18.850615       25.794979       10.913175
  C           18.776848       25.226802        9.512484
  H           15.544983       26.326227       10.346099
  H           16.154299       25.027907       11.417734
  H           17.456246       26.948711       12.136096
  H           17.639935       27.528583       10.470260
  H           18.858234       24.978710       11.654826
  H           19.754982       26.386675       11.061887
  H           19.381208       24.322962        9.386303
  H           19.070960       25.974834        8.769486
  O           13.097516       13.508893       22.034833
  S           13.636121       13.715106       20.711208
  O           12.811239       14.173265       19.610136
  C           15.067968       14.768732       20.840377
  C           16.185456       14.007137       20.132497
  C           15.973573       12.531237       20.471059
  C           14.511695       12.247766       20.201323
  H           14.864759       15.739520       20.379098
  H           15.299592       14.901196       21.900096
  H           17.172790       14.356734       20.452583
  H           16.110553       14.150539       19.047543
  H           16.202454       12.366802       21.537350
  H           16.625655       11.879760       19.887564
  H           14.135004       11.383457       20.757358
  H           14.330213       12.106525       19.131176
  O            9.803615       13.614333       31.924335
  S           10.907826       12.725223       32.197835
  O           11.425990       12.535503       33.538809
  C           10.541498       11.132197       31.487150
  C           11.745939       10.803728       30.608897
  C           12.182078       12.125198       29.975414
  C           12.262810       13.124056       31.109419
  H           10.385530       10.393092       32.278287
  H            9.635713       11.228123       30.883369
  H           11.494950       10.055692       29.849327
  H           12.561734       10.402682       31.222852
  H           11.423250       12.443818       29.241207
  H           13.133684       12.032842       29.450042
  H           12.169791       14.161147       30.771944
  H           13.191766       13.001347       31.675177
  O            9.669271       14.377707        2.116433
  S            8.818556       15.192016        2.951769
  O            9.211365       15.590141        4.289640
  C            8.342434       16.642418        2.031638
  C            6.818010       16.673926        2.102619
  C            6.359123       15.217930        2.017202
  C            7.195065       14.458028        3.024153
  H            8.800995       17.533978        2.469066
  H            8.680296       16.518030        0.999855
  H            6.392435       17.279060        1.295030
  H            6.494143       17.106749        3.057121
  H            6.549080       14.836418        0.999968
  H            5.291811       15.112789        2.216929
  H            7.265079       13.388852        2.800412
  H            6.810786       14.598844        4.039338
  O           26.919112       20.858166        4.310882
  S           25.640764       21.420299        4.677536
  O           24.773688       20.784303        5.650361
  C           25.883869       23.123443        5.143583
  C           24.903277       23.913987        4.281387
  C           24.886528       23.224251        2.916915
  C           24.700844       21.748932        3.198263
  H           25.698685       23.251713        6.213982
  H           26.915317       23.397543        4.908669
  H           25.200648       24.964804        4.198596
  H           23.900080       23.879583        4.723780
  H           25.851346       23.396511        2.411098
  H           24.098947       23.614427        2.270712
  H           25.060876       21.110865        2.385031
  H           23.652228       21.519032        3.411924
  O           23.660356       15.569791        3.981579
  S           25.076654       15.833537        4.077174
  O           25.826552       15.566805        5.289282
  C           25.893701       15.043229        2.704276
  C           26.708393       16.148928        2.038238
  C           25.855036       17.414752        2.123515
  C           25.394943       17.510740        3.562022
  H           26.518290       14.219022        3.060745
  H           25.127450       14.662681        2.024391
  H           26.952695       15.896235        1.000952
  H           27.649634       16.302096        2.580367
  H           24.985935       17.312679        1.452215
  H           26.408768       18.303119        1.816458
  H           24.486622       18.109943        3.680388
  H           26.187772       17.910958        4.201824
  O           26.183136        6.987106        5.185809
  S           26.192373        6.598551        6.576326
  O           26.974558        7.312195        7.567084
  C           24.506417        6.481998        7.142868
  C           24.387149        5.085380        7.747131
  C           25.229451        4.166615        6.861582
  C           26.564850        4.858730        6.694586
  H           24.297175        7.272419        7.869472
  H           23.847601        6.587849        6.277446
  H           23.343364        4.756725        7.791820
  H           24.787713        5.081223        8.768322
  H           24.734944        4.052812        5.882341
  H           25.341644        3.171422        7.294137
  H           27.103167        4.536591        5.797624
  H           27.195850        4.712381        7.576924
  O           28.548980       14.952810       31.349728
  S           28.276047       13.536650       31.281923
  O           29.225545       12.598683       30.715025
  C           27.802996       12.972828       32.905292
  C           26.465928       12.264388       32.704638
  C           25.712185       13.072197       31.647702
  C           26.688291       13.283671       30.510734
  H           28.571589       12.309958       33.313174
  H           27.685684       13.847683       33.549549
  H           25.902366       12.200895       33.641584
  H           26.631582       11.243513       32.339023
  H           25.412971       14.042790       32.077609
  H           24.806515       12.564248       31.313261
  H           26.439186       14.150217       29.890135
  H           26.760988       12.389022       29.884301
  O           15.060686       14.621552       36.186014
  S           15.130322       15.320700       34.924688
  O           15.964863       14.854598       33.834280
  C           13.471309       15.566079       34.320981
  C           13.365789       17.064568       34.050248
  C           14.156667       17.753434       35.162802
  C           15.489950       17.040552       35.228791
  H           13.304093       14.964953       33.422545
  H           12.774237       15.263695       35.106382
  H           12.321866       17.395373       34.033112
  H           13.813160       17.304155       33.077747
  H           13.616187       17.638372       36.117287
  H           14.278527       18.821539       34.977321
  H           15.982798       17.146489       36.200376
  H           16.159603       17.386266       34.434974
  O           31.119269       20.544951       25.055567
  S           30.396874       21.168439       26.139084
  O           30.730752       20.918308       27.527846
  C           30.363710       22.928357       25.858750
  C           28.888241       23.313010       25.928986
  C           28.118670       22.163607       25.277500
  C           28.649655       20.895507       25.910095
  H           30.967167       23.441854       26.612846
  H           30.768339       23.122807       24.862425
  H           28.698379       24.264608       25.421134
  H           28.575912       23.419051       26.975172
  H           28.319630       22.160686       24.193062
  H           27.040993       22.262851       25.414843
  H           28.495008       20.010004       25.285540
  H           28.205581       20.733646       26.897363
  O            1.592707       12.513020       25.723017
  S            2.587181       12.548621       24.676903
  O            2.251763       12.288208       23.290404
  C            3.462665       14.097754       24.780426
  C            4.938640       13.714859       24.849622
  C            5.008563       12.446995       25.701346
  C            3.960655       11.510202       25.140538
  H            3.231415       14.720501       23.911398
  H            3.150263       14.605650       25.696202
  H            5.541683       14.522463       25.278124
  H            5.320760       13.503995       23.843232
  H            4.771716       12.699492       26.748508
  H            6.002389       11.997383       25.685217
  H            3.626430       10.761003       25.865173
  H            4.322833       11.012984       24.235164
  O           26.100811       27.527211       26.143093
  S           25.444605       26.570786       25.283300
  O           25.536436       26.648772       23.838244
  C           25.905477       24.930165       25.805755
  C           24.584052       24.197446       26.022224
  C           23.622739       25.224349       26.621513
  C           23.726065       26.453148       25.744258
  H           26.529470       24.453217       25.044405
  H           26.460704       25.014027       26.743247
  H           24.710261       23.331004       26.680137
  H           24.189927       23.839955       25.062972
  H           23.941582       25.463312       27.649927
  H           22.600021       24.847839       26.670383
  H           23.419721       27.370414       26.256973
  H           23.142619       26.330285       24.826327
  O            1.003578       23.730572       27.522858
  S            1.719540       23.660588       28.774697
  O            1.461668       24.588413       29.858829
  C            1.607804       21.994642       29.398506
  C            3.051467       21.569155       29.652864
  C            3.879220       22.179214       28.521293
  C            3.471814       23.634697       28.445203
  H            0.997917       21.971900       30.306262
  H            1.149887       21.371277       28.626543
  H            3.148031       20.478556       29.680615
  H            3.396632       21.964499       30.616121
  H            3.635653       21.666142       27.575866
  H            4.950907       22.068205       28.692356
  H            3.667974       24.082028       27.465655
  H            3.966195       24.221981       29.225449
  O           29.963158       16.103831       19.390697
  S           31.283778       15.856160       18.862285
  O           31.489544       15.163122       17.605281
  C           32.177984       17.397649       18.827508
  C           33.474799       17.120559       19.583412
  C           33.103488       16.184675       20.734085
  C           32.279005       15.074811       20.118755
  H           32.353638       17.708565       17.793595
  H           31.579844       18.150818       19.346320
  H           33.930942       18.047065       19.948132
  H           34.196925       16.624298       18.923443
  H           32.502538       16.739529       21.473948
  H           33.984810       15.796505       21.246623
  H           31.629131       14.574074       20.843342
  H           32.919742       14.337205       19.625305
  O            2.131602       13.599486        9.155242
  S            2.935139       13.980804       10.292574
  O            2.942753       13.208649       11.519936
  C            4.615076       14.216391        9.745482
  C            4.994770       15.615548       10.223071
  C            3.740667       16.474699       10.059099
  C            2.611927       15.688741       10.690300
  H            5.261045       13.440225       10.165945
  H            4.629303       14.161794        8.654144
  H            5.837398       16.018452        9.651104
  H            5.285795       15.586723       11.280319
  H            3.543292       16.627785        8.984851
  H            3.854844       17.457471       10.518689
  H            1.626949       15.974795       10.308080
  H            2.627811       15.785670       11.780461
  O            2.592828       20.848334        1.896363
  S            2.278932       22.257544        1.910368
  O            1.213693       22.814300        1.099203
  C            2.047373       22.769265        3.601972
  C            2.987333       23.957332        3.788716
  C            4.247858       23.631121        2.987177
  C            3.770041       23.191413        1.620229
  H            0.999975       23.031880        3.776587
  H            2.336629       21.939789        4.251971
  H            3.214348       24.125255        4.846906
  H            2.524758       24.869651        3.392484
  H            4.790792       22.809016        3.482926
  H            4.924522       24.484434        2.923291
  H            4.498493       22.566186        1.094350
  H            3.507363       24.054190        0.999973
  O           35.550314       20.705911       31.292926
  S           35.428393       19.267539       31.321617
  O           36.201500       18.450220       32.236491
  C           33.703716       18.848656       31.486009
  C           33.417437       17.889270       30.333828
  C           34.232512       18.398952       29.144847
  C           35.633260       18.630500       29.668768
  H           33.516990       18.396433       32.464338
  H           33.118487       19.765640       31.381856
  H           32.347664       17.850050       30.102424
  H           33.744507       16.875888       30.597234
  H           33.798564       19.347694       28.787109
  H           34.224284       17.695299       28.311238
  H           36.200958       19.347014       29.066749
  H           36.186030       17.688516       29.740961
  O           30.203393       19.931949        8.117931
  S           30.037936       18.635249        7.504912
  O           30.114840       18.450216        6.068754
  C           31.148618       17.488403        8.297458
  C           30.266003       16.325161        8.742159
  C           28.945670       16.945379        9.200256
  C           28.527994       17.896073        8.099381
  H           31.931308       17.177742        7.599327
  H           31.596103       17.987833        9.160317
  H           30.739503       15.747201        9.542946
  H           30.081889       15.648110        7.898949
  H           29.111393       17.499898       10.139109
  H           28.182991       16.189261        9.391846
  H           27.847766       18.679711        8.447663
  H           28.071405       17.354215        7.265105
  O            6.794693       15.920389       12.846864
  S            6.152072       16.522589       13.990977
  O            6.242242       17.944370       14.261360
  C            4.436483       16.039138       13.996361
  C            4.196534       15.445313       15.381893
  C            5.470798       14.681073       15.742429
  C            6.617714       15.627498       15.461246
  H            3.799795       16.905646       13.795630
  H            4.292528       15.283504       13.220157
  H            3.317986       14.791412       15.390114
  H            4.029025       16.247060       16.111579
  H            5.550678       13.786081       15.102890
  H            5.467899       14.347362       16.781047
  H            7.566577       15.109187       15.290620
  H            6.734129       16.354643       16.271065
  O           35.918349        3.513433       24.756084
  S           35.314963        2.303319       25.262195
  O           35.646575        0.997948       24.724848
  C           35.514403        2.268965       27.033083
  C           34.107193        2.060123       27.586297
  C           33.172305        2.864386       26.682448
  C           33.541655        2.490601       25.263270
  H           36.200877        1.467082       27.319855
  H           35.916508        3.234433       27.349914
  H           34.035786        2.383440       28.630264
  H           33.838623        0.997501       27.541550
  H           33.343638        3.941090       26.849041
  H           32.121939        2.659082       26.893829
  H           33.252347        3.252306       24.532375
  H           33.104687        1.526393       24.984949
  O           24.155850        7.889833       30.273123
  S           25.343352        8.037816       29.465325
  O           25.297787        7.982291       28.017036
  C           26.183887        9.529023       29.962119
  C           27.613337        9.093277       30.273080
  C           27.503721        7.718328       30.932850
  C           26.589798        6.901955       30.044887
  H           26.137155       10.272920       29.161536
  H           25.692352        9.915259       30.858453
  H           28.118464        9.814258       30.924642
  H           28.192555        9.011363       29.345127
  H           27.058494        7.831180       31.935565
  H           28.478462        7.243733       31.054261
  H           26.112154        6.070899       30.573379
  H           27.127962        6.523263       29.170203
  O           26.555600       31.954258       34.274972
  S           27.216087       33.051009       33.607518
  O           28.231751       32.833472       32.595686
  C           25.972261       34.147716       32.953966
  C           26.331013       35.525901       33.503333
  C           26.839282       35.296021       34.926926
  C           27.856243       34.179437       34.830853
  H           25.979507       34.117371       31.860565
  H           24.998959       33.821858       33.329067
  H           25.467995       36.200019       33.487044
  H           27.125605       35.978006       32.897095
  H           25.996316       34.988585       35.568247
  H           27.271593       36.200042       35.358150
  H           28.000283       33.650812       35.778433
  H           28.817968       34.554683       34.467018
  O           23.682763       14.631568       33.569891
  S           23.438653       15.522804       32.460517
  O           24.472202       16.392756       31.933583
  C           22.735845       14.580135       31.120952
  C           21.451388       15.316420       30.749528
  C           20.854209       15.817679       32.064791
  C           21.986062       16.498581       32.803359
  H           23.442574       14.523736       30.287973
  H           22.514387       13.575678       31.490036
  H           20.755562       14.661646       30.214181
  H           21.680850       16.170237       30.100187
  H           20.483681       14.957123       32.646644
  H           20.013995       16.494011       31.901344
  H           21.822378       16.546180       33.884581
  H           22.160974       17.505457       32.411306
  O            9.814077        5.389287        8.507222
  S           10.635433        6.065756        9.483113
  O           10.688252        7.512196        9.570977
  C           10.264321        5.400277       11.094452
  C           11.613690        4.976473       11.668469
  C           12.416244        4.414078       10.494833
  C           12.300370        5.435027        9.383781
  H            9.765974        6.155673       11.708884
  H            9.609377        4.535309       10.963769
  H           11.494043        4.236360       12.466853
  H           12.134610        5.846016       12.087798
  H           11.972831        3.455211       10.178040
  H           13.456686        4.225721       10.763351
  H           12.472284        5.006824        8.391214
  H           12.984567        6.273439        9.548215
  O           14.092292       10.054208       29.507467
  S           14.032962        9.281062       28.289549
  O           13.467017        9.817656       27.067062
  C           15.661176        8.643682       27.943620
  C           15.469729        7.138906       27.773634
  C           14.411741        6.727439       28.797917
  C           13.269666        7.706607       28.633308
  H           16.069310        9.118333       27.046606
  H           16.301366        8.858729       28.802754
  H           16.409313        6.596657       27.924130
  H           15.108733        6.916947       26.761845
  H           14.837841        6.807075       29.812066
  H           14.083687        5.696742       28.655989
  H           12.645615        7.788712       29.528807
  H           12.647587        7.442899       27.772160
  O           24.434263       36.199971       27.184736
  S           24.303226       34.936934       26.497591
  O           25.219091       33.837425       26.732052
  C           22.631687       34.352468       26.700948
  C           22.131836       34.080898       25.284509
  C           22.725282       35.183092       24.406563
  C           24.199989       35.234370       24.742435
  H           22.619016       33.456907       27.328890
  H           22.047686       35.146448       27.172900
  H           21.037509       34.075596       25.240695
  H           22.489488       33.102860       24.939795
  H           22.244792       36.144038       24.655786
  H           22.559164       34.994693       23.344956
  H           24.658117       36.199933       24.505988
  H           24.746027       34.432236       24.235953
  O            2.420854       26.224521        9.659857
  S            2.437118       26.416690       11.090733
  O            1.933565       25.410667       12.005638
  C            4.088755       26.872398       11.582085
  C            3.923349       28.165553       12.375995
  C            2.815087       28.953658       11.677105
  C            1.673225       27.980427       11.479182
  H            4.540490       26.071565       12.174623
  H            4.678271       27.044762       10.678226
  H            4.859061       28.733371       12.415037
  H            3.621069       27.939312       13.405918
  H            3.183786       29.311013       10.701012
  H            2.506585       29.826150       12.254760
  H            0.999939       28.272094       10.666953
  H            1.102431       27.851659       12.404230
  O           23.922378       25.933201       10.910616
  S           23.367575       25.242574       12.050716
  O           22.975336       25.945251       13.256989
  C           22.003872       24.237998       11.495612
  C           22.312621       22.833330       12.006965
  C           23.825871       22.657503       11.876734
  C           24.443494       23.892255       12.496515
  H           21.061749       24.629928       11.889687
  H           21.987681       24.258327       10.403127
  H           21.767658       22.072043       11.438671
  H           22.020715       22.743283       13.060522
  H           24.093423       22.593612       10.808683
  H           24.175050       21.744615       12.361307
  H           25.455415       24.092725       12.130553
  H           24.452880       23.820413       13.588692
  O            9.047139       26.743749       30.961689
  S            8.820427       25.346311       31.245183
  O            9.870402       24.487276       31.757347
  C            7.391143       25.207391       32.301047
  C            6.466281       24.224085       31.588559
  C            6.603611       24.518856       30.094554
  C            8.090038       24.570818       29.815203
  H            7.688425       24.858820       33.294335
  H            6.925461       26.193129       32.376291
  H            5.430421       24.331942       31.927471
  H            6.783611       23.193807       31.791358
  H            6.140607       25.495038       29.872978
  H            6.103469       23.767764       29.481514
  H            8.335719       25.148438       28.918489
  H            8.509274       23.563125       29.732162
  O            2.577729       25.984908       21.712974
  S            3.789348       25.743412       20.965808
  O            3.991671       24.525577       20.205122
  C            4.090396       27.145148       19.906796
  C            5.516381       27.585079       20.227621
  C            5.691459       27.391016       21.734103
  C            5.194720       25.993443       22.034505
  H            3.965695       26.859423       18.858316
  H            3.374776       27.929055       20.166751
  H            5.690122       28.625231       19.931990
  H            6.235148       26.955207       19.689165
  H            5.079084       28.135660       22.269736
  H            6.727746       27.527192       22.046617
  H            4.890334       25.863888       23.077896
  H            5.948959       25.244292       21.773743
  O            9.331062       23.823996       25.070909
  S            9.306903       22.651659       24.228506
  O            9.298598       22.746762       22.781583
  C           10.628669       21.566349       24.730541
  C            9.959358       20.218386       24.985332
  C            8.602903       20.531042       25.617847
  C            7.969272       21.590260       24.742194
  H           11.391678       21.514381       23.948482
  H           11.064935       21.962972       25.650629
  H           10.571349       19.584578       25.635913
  H            9.809980       19.686758       24.037515
  H            8.759124       20.923365       26.636708
  H            7.973887       19.643261       25.697114
  H            7.212391       22.181313       25.267444
  H            7.532326       21.145806       23.842395
  O           19.042592       33.326890       27.608426
  S           18.213755       33.278908       26.427187
  O           17.677967       34.480120       25.816678
  C           19.057457       32.322564       25.181967
  C           18.055656       31.251551       24.758615
  C           17.313252       30.838787       26.029938
  C           16.879555       32.126740       26.695734
  H           19.358359       32.967063       24.350956
  H           19.939958       31.869019       25.639887
  H           18.556790       30.398374       24.289090
  H           17.343677       31.666699       24.034709
  H           18.001904       30.283352       26.688459
  H           16.463573       30.189182       25.815092
  H           16.702913       32.013270       27.769989
  H           15.984937       32.535131       26.215134
  O           27.771388       14.430431       14.903905
  S           27.570871       13.814052       16.194049
  O           27.225206       14.589744       17.369428
  C           26.396977       12.485415       16.010481
  C           27.088513       11.260900       16.603979
  C           28.563150       11.377302       16.217074
  C           28.977954       12.787613       16.576462
  H           25.464691       12.731768       16.526864
  H           26.205729       12.344067       14.943876
  H           26.645683       10.331340       16.230722
  H           26.992894       11.266883       17.696738
  H           28.667529       11.215188       15.131153
  H           29.179297       10.633469       16.724200
  H           29.849177       13.133269       16.011137
  H           29.174140       12.877642       17.649544
  O           17.066931       17.502144       22.541646
  S           18.101607       16.870023       21.757765
  O           17.921053       16.566288       20.351407
  C           19.611465       17.795051       21.961857
  C           20.650331       16.766143       22.400041
  C           19.919503       15.793025       23.325640
  C           18.653394       15.396884       22.597464
  H           19.880678       18.289358       21.023941
  H           19.451140       18.541650       22.743577
  H           21.497698       17.243021       22.904080
  H           21.036062       16.224991       21.527306
  H           19.670645       16.306912       24.269245
  H           20.532004       14.924669       23.572420
  H           17.867107       15.041765       23.271068
  H           18.859397       14.637243       21.836801
  O           30.521776        5.629444       31.492487
  S           29.521192        4.994149       32.317006
  O           28.164281        4.783235       31.851164
  C           30.176799        3.447239       32.912196
  C           30.009643        3.503241       34.428383
  C           30.290000        4.950835       34.832947
  C           29.464371        5.811089       33.901014
  H           29.636050        2.610026       32.461458
  H           31.233980        3.397454       32.640001
  H           30.687300        2.805297       34.931527
  H           28.982097        3.236154       34.704271
  H           31.363416        5.164512       34.696856
  H           30.044562        5.138262       35.879241
  H           29.853691        6.829406       33.803235
  H           28.418224        5.844477       34.221265
  O           32.019452        9.759342       12.953753
  S           33.271684       10.380210       12.591764
  O           33.495611       11.804226       12.749046
  C           34.595232        9.493492       13.391110
  C           35.558316        9.121201       12.266935
  C           34.687136        8.777795       11.058251
  C           33.695207        9.912792       10.923876
  H           35.063933       10.122289       14.153628
  H           34.174668        8.597520       13.854316
  H           36.201034        8.281646       12.552523
  H           36.203413        9.974879       12.025306
  H           34.156889        7.829995       11.250379
  H           35.278690        8.648840       10.150763
  H           32.788862        9.625395       10.381620
  H           34.155099       10.780922       10.441227
  O            7.746294       34.062039       22.381726
  S            8.302840       33.176002       21.386841
  O            8.339143       31.738528       21.574057
  C            7.540034       33.537042       19.816880
  C            8.702547       33.783412       18.858879
  C            9.768681       34.523738       19.667010
  C            9.937241       33.740020       20.950589
  H            6.908362       32.700893       19.503280
  H            6.933900       34.439077       19.931489
  H            8.384837       34.361880       17.984845
  H            9.107202       32.827649       18.503812
  H            9.413215       35.544079       19.888248
  H           10.708940       34.611234       19.120789
  H           10.348179       34.341981       21.767212
  H           10.563202       32.856285       20.791572
  O           18.029944       26.607689       20.980659
  S           17.510350       25.582812       20.106446
  O           16.798997       25.904961       18.884605
  C           18.825870       24.441379       19.727582
  C           18.272799       23.065340       20.088872
  C           17.428880       23.264557       21.348203
  C           16.525137       24.444105       21.061644
  H           19.100058       24.518922       18.671501
  H           19.685296       24.690973       20.354711
  H           19.077884       22.341220       20.253153
  H           17.638997       22.688865       19.276554
  H           18.093470       23.492315       22.198406
  H           16.857766       22.370908       21.603780
  H           16.169008       24.939443       21.970442
  H           15.671637       24.144073       20.445513
  O           22.187854        6.727560       22.314213
  S           20.905485        7.188686       22.791174
  O           20.789112        8.227564       23.796107
  C           19.902748        7.627891       21.384541
  C           18.607201        6.840076       21.560052
  C           19.010593        5.483679       22.139070
  C           19.932126        5.784358       23.301210
  H           19.736415        8.708796       21.362664
  H           20.428332        7.313638       20.479440
  H           18.073845        6.730535       20.609772
  H           17.943580        7.358071       22.263322
  H           19.546715        4.904827       21.368419
  H           18.144739        4.898067       22.451248
  H           20.594443        4.948541       23.547881
  H           19.362172        6.078557       24.188171
  O            6.639504        4.067514        5.173525
  S            6.238263        3.405990        3.954513
  O            5.511033        2.151516        3.966046
  C            5.358712        4.576612        2.938131
  C            6.070798        4.543039        1.588424
  C            7.559215        4.379901        1.897942
  C            7.656340        3.238202        2.886521
  H            4.304691        4.293904        2.863180
  H            5.447688        5.563331        3.399291
  H            5.876246        5.453000        1.010826
  H            5.721125        3.686421        0.999157
  H            7.939652        5.309994        2.352469
  H            8.145477        4.186337        0.998537
  H            8.572395        3.268667        3.484864
  H            7.578455        2.271648        2.378774
  O           32.236758       26.403702       11.882469
  S           32.800868       27.359890       12.805552
  O           32.432850       27.381484       14.207977
  C           34.577169       27.294582       12.673297
  C           35.008410       28.735648       12.413951
  C           33.941059       29.340179       11.501205
  C           32.609724       29.001524       12.136074
  H           35.009035       26.886590       13.591738
  H           34.832837       26.654511       11.825274
  H           36.002461       28.779460       11.956304
  H           35.044976       29.293626       13.357680
  H           34.014208       28.879071       10.501991
  H           34.068376       30.416815       11.379777
  H           31.781006       29.012383       11.421085
  H           32.388649       29.677073       12.968456
  O            4.307959       33.105933       20.654808
  S            4.322254       32.303315       21.854892
  O            4.767014       30.923148       21.849471
  C            5.207846       33.192784       23.120424
  C            4.256207       33.237406       24.313023
  C            2.854496       33.421393       23.730655
  C            2.720308       32.387652       22.633580
  H            6.147323       32.682906       23.352601
  H            5.412661       34.200129       22.749604
  H            4.516314       34.047924       25.002157
  H            4.303260       32.292461       24.868149
  H            2.766780       34.436829       23.309236
  H            2.078251       33.308760       24.488849
  H            1.963251       32.651990       21.888536
  H            2.499930       31.399675       23.050036
  O            9.686372       20.228598        1.560368
  S           11.110250       20.324942        1.779205
  O           11.947561       21.216308        1.000053
  C           11.397614       20.626793        3.512210
  C           12.374866       19.537957        3.947314
  C           11.968479       18.274853        3.187565
  C           11.819655       18.689434        1.739748
  H           11.799593       21.633580        3.658134
  H           10.445221       20.526212        4.038547
  H           12.345262       19.383834        5.031228
  H           13.398999       19.819308        3.672920
  H           11.004483       17.909625        3.579637
  H           12.699352       17.473540        3.305135
  H           11.168097       18.020160        1.169095
  H           12.795783       18.761463        1.249762
  O           28.468062        4.869559       11.058340
  S           29.578956        5.768647       11.263656
  O           30.487299        5.622287       12.384456
  C           30.526690        5.851113        9.756341
  C           30.626109        7.339286        9.431755
  C           29.279806        7.949635        9.822579
  C           28.985992        7.449786       11.220443
  H           31.506667        5.387229        9.901104
  H           29.974819        5.320031        8.976860
  H           30.851206        7.503463        8.372568
  H           31.425707        7.801420       10.023679
  H           28.504333        7.597429        9.121871
  H           29.296301        9.039537        9.778535
  H           27.919304        7.469396       11.465169
  H           29.547134        8.020239       11.967305
  O           24.458350        8.405220        5.199483
  S           24.503146        9.844632        5.096118
  O           23.985963       10.705332        6.142263
  C           26.174796       10.333321        4.716949
  C           26.059101       11.207423        3.470971
  C           24.962609       10.577762        2.611302
  C           23.790453       10.341264        3.538837
  H           26.613036       10.867778        5.564771
  H           26.754333        9.431283        4.505611
  H           27.011112       11.264319        2.932511
  H           25.767145       12.226863        3.751691
  H           25.325550        9.618853        2.204895
  H           24.688429       11.212949        1.767819
  H           23.112739        9.560467        3.179450
  H           23.231212       11.266772        3.708494
  O           30.726633        0.987041       10.303306
  S           30.431397        2.262321       10.912484
  O           30.415904        3.493287       10.146206
  C           28.898577        2.119373       11.810832
  C           29.220060        2.603028       13.222437
  C           30.631535        2.102791       13.531147
  C           31.479504        2.485912       12.337678
  H           28.121501        2.719640       11.328824
  H           28.604714        1.066862       11.818854
  H           28.491366        2.228464       13.949214
  H           29.201748        3.699235       13.258425
  H           30.610939        1.006157       13.646770
  H           31.022583        2.526648       14.457175
  H           32.376170        1.866611       12.234934
  H           31.762807        3.542329       12.380383
  O           14.083743        4.258297        5.989278
  S           14.597064        2.917493        5.836490
  O           14.242970        2.084995        4.703236
  C           16.372532        2.970657        5.984434
  C           16.710951        1.946564        7.064530
  C           15.598794        2.048104        8.108846
  C           14.297649        2.002432        7.337395
  H           16.838342        2.735496        5.023070
  H           16.658562        3.976862        6.300564
  H           17.695582        2.139075        7.503780
  H           16.722657        0.936862        6.635967
  H           15.690010        3.007986        8.644297
  H           15.657897        1.248650        8.848765
  H           13.462485        2.453758        7.882286
  H           14.043785        0.975452        7.056391
  O           17.349775       23.685706       25.528120
  S           16.919521       22.438844       24.940910
  O           17.708496       21.750852       23.937473
  C           16.530672       21.298686       26.254621
  C           15.112116       20.820141       25.956974
  C           14.361842       22.033327       25.406457
  C           15.252741       22.622762       24.334512
  H           17.255068       20.479219       26.269586
  H           16.565629       21.843903       27.201044
  H           14.628479       20.419863       26.854400
  H           15.133333       20.025905       25.200640
  H           14.208476       22.764347       26.217930
  H           13.380684       21.763839       25.013005
  H           15.046468       23.680400       24.142282
  H           15.172997       22.055170       23.401999
  O            6.454006        6.010754       29.438928
  S            6.718897        6.630556       30.715751
  O            6.351204        5.996847       31.967116
  C            8.441889        7.082526       30.779161
  C            8.449426        8.565680       31.139854
  C            7.260279        9.186741       30.406361
  C            6.075261        8.293466       30.702999
  H            8.965888        6.468832       31.517608
  H            8.873384        6.922077       29.788067
  H            9.393266        9.042039       30.853940
  H            8.320858        8.690912       32.222022
  H            7.467015        9.197113       29.323055
  H            7.078563       10.215919       30.719206
  H            5.281728        8.374406       29.953430
  H            5.667005        8.500279       31.697310
  O           18.024373        1.811679       36.200272
  S           18.447767        2.310602       34.913255
  O           18.506405        1.458321       33.741556
  C           17.490122        3.763206       34.526140
  C           18.520303        4.844419       34.210538
  C           19.682058        4.619057       35.178700
  C           20.013206        3.144715       35.095891
  H           16.822614        3.561382       33.683405
  H           16.904586        4.031112       35.409075
  H           18.093603        5.847256       34.318910
  H           18.875113        4.736905       33.178137
  H           19.358916        4.879495       36.200538
  H           20.544519        5.241022       34.934938
  H           20.526138        2.771855       35.988065
  H           20.612723        2.926435       34.206491
  O           12.898768       10.761388        2.914827
  S           13.927590        9.758829        3.059742
  O           13.617906        8.387773        3.416116
  C           14.932881        9.762290        1.587881
  C           16.365890        9.926742        2.087221
  C           16.294073       10.888883        3.273361
  C           15.187006       10.369212        4.164733
  H           14.787515        8.832915        1.029641
  H           14.635664       10.615923        0.973736
  H           17.023166       10.307446        1.298201
  H           16.761927        8.959719        2.420871
  H           16.044952       11.898914        2.907060
  H           17.244109       10.954064        3.805604
  H           14.763172       11.142291        4.813434
  H           15.534366        9.527080        4.771572
  O           20.336178       21.501235        3.500225
  S           19.644101       21.162424        2.279227
  O           20.340623       21.028498        1.014465
  C           18.675763       19.693742        2.566099
  C           17.258787       20.062965        2.135106
  C           17.052030       21.517566        2.558412
  C           18.265745       22.272533        2.061298
  H           19.083133       18.855536        1.993422
  H           18.709453       19.466152        3.634401
  H           16.516219       19.400337        2.592290
  H           17.162488       19.979218        1.045605
  H           16.995135       21.571011        3.658552
  H           16.126137       21.932748        2.157856
  H           18.448760       23.198514        2.615522
  H           18.180707       22.492184        0.992363
  O           19.808720       27.651069       29.072676
  S           18.699583       26.927233       29.647547
  O           18.596550       26.687817       31.073998
  C           17.182623       27.665673       29.072622
  C           16.381120       26.511450       28.476583
  C           17.397099       25.602256       27.784519
  C           18.506024       25.376265       28.789215
  H           16.662258       28.153021       29.902208
  H           17.431396       28.402464       28.304864
  H           15.620185       26.872457       27.776475
  H           15.871937       25.955344       29.273314
  H           17.792101       26.113430       26.890610
  H           16.949739       24.662214       27.458498
  H           19.454660       25.094485       28.321465
  H           18.218992       24.620641       29.527282
  O            9.748099       27.791304        9.771543
  S           11.172680       27.863159        9.995164
  O           12.058156       28.560814        9.083074
  C           11.456591       28.461403       11.650005
  C           12.377863       27.427718       12.292386
  C           11.920787       26.066842       11.766175
  C           11.805714       26.218089       10.264815
  H           11.903432       29.459332       11.618843
  H           10.495392       28.499843       12.168483
  H           12.330408       27.474185       13.385587
  H           13.416623       27.609419       11.990292
  H           10.937036       25.821440       12.200239
  H           12.612454       25.268852       12.039869
  H           11.129453       25.485667        9.812786
  H           12.788935       26.157150        9.787674
  O            5.534596       23.367347       15.767141
  S            5.511565       23.154946       14.339221
  O            4.301557       23.323240       13.558031
  C            6.816361       24.119932       13.602125
  C            7.621920       23.126324       12.769228
  C            7.646569       21.823720       13.569487
  C            6.213143       21.556642       13.974651
  H            6.393014       24.927375       12.997714
  H            7.427564       24.537659       14.405950
  H            8.633173       23.497502       12.571507
  H            7.128632       22.956462       11.804286
  H            8.275926       21.959540       14.464955
  H            8.064038       20.997011       12.992969
  H            6.131740       20.910493       14.854404
  H            5.644701       21.124737       13.144933
  O           32.877820        8.751670        5.857807
  S           34.206713        8.852960        5.302483
  O           34.995561        7.679306        4.981617
  C           34.143901        9.917441        3.874220
  C           35.208014       10.982275        4.126594
  C           35.158847       11.284540        5.624599
  C           35.184635        9.941483        6.321545
  H           34.335663        9.340367        2.964983
  H           33.148885       10.366803        3.827125
  H           35.024812       11.880658        3.527559
  H           36.199319       10.594563        3.861463
  H           34.220753       11.815823        5.857234
  H           35.987160       11.919891        5.941341
  H           34.763236        9.976531        7.331146
  H           36.201551        9.538296        6.359241
  O            8.302733       10.326291        4.258543
  S            8.351553        9.240481        3.308157
  O            7.159385        8.520935        2.903572
  C            9.212557        9.801128        1.851672
  C           10.320193        8.775250        1.626694
  C           10.820689        8.379641        3.016226
  C            9.584480        8.062419        3.829465
  H            8.521657        9.864382        1.006003
  H            9.633944       10.787062        2.062781
  H           11.126290        9.185871        1.009363
  H            9.917738        7.892335        1.115039
  H           11.361937        9.230404        3.463051
  H           11.507367        7.532809        2.978160
  H            9.747880        8.154709        4.907836
  H            9.207956        7.061274        3.597003
  O           35.454422       13.023324       31.723457
  S           34.832392       11.829031       32.244364
  O           35.541362       10.912704       33.116376
  C           33.289260       12.283134       33.012176
  C           32.241969       11.386110       32.357632
  C           32.650078       11.258877       30.889620
  C           34.121323       10.904472       30.895560
  H           33.349092       12.136852       34.094544
  H           33.093537       13.334803       32.788824
  H           31.235337       11.804884       32.461652
  H           32.247123       10.395380       32.828511
  H           32.494006       12.226632       30.384158
  H           32.056423       10.510188       30.363181
  H           34.627663       11.168868       29.961850
  H           34.267933        9.840591       31.107134
  O           17.987789        2.539127       29.115951
  S           17.072111        3.573794       29.534995
  O           17.269050        4.964506       29.174671
  C           15.419371        3.085511       29.079988
  C           14.608718        3.181214       30.369787
  C           15.537046        2.711446       31.490201
  C           16.835235        3.465343       31.299032
  H           15.035181        3.741754       28.293703
  H           15.455212        2.054376       28.719883
  H           13.699848        2.572384       30.317057
  H           14.309956        4.221069       30.550738
  H           15.708655        1.626709       31.388735
  H           15.108823        2.888544       32.477805
  H           17.692957        2.960324       31.754410
  H           16.757643        4.485508       31.688059
  O           24.250118        4.775306       12.447160
  S           23.347233        3.862114       13.107069
  O           23.225516        3.813149       14.551191
  C           21.724881        4.056249       12.394829
  C           21.307104        2.650419       11.971743
  C           22.573328        1.970476       11.450061
  C           23.637575        2.211278       12.498676
  H           21.041082        4.494044       13.127804
  H           21.810132        4.713623       11.526041
  H           20.521302        2.679109       11.209383
  H           20.920753        2.096085       12.835889
  H           22.868318        2.436187       10.494815
  H           22.420440        0.905983       11.266813
  H           24.654111        2.140661       12.098968
  H           23.522565        1.521039       13.340367
  O           32.128203       10.704919       21.590911
  S           31.163498       10.176493       20.655652
  O           31.561150        9.378421       19.512124
  C           29.911950        9.296239       21.569862
  C           28.587795        9.904069       21.114828
  C           28.849358       11.398775       20.927101
  C           30.108567       11.499802       20.093802
  H           29.975332        8.224557       21.360145
  H           30.076454        9.477613       22.634870
  H           27.792300        9.722369       21.845356
  H           28.278481        9.461540       20.159949
  H           29.007400       11.866432       21.913366
  H           28.008318       11.904835       20.451018
  H           30.624615       12.457478       20.214843
  H           29.893185       11.327255       19.034587
  O           12.518067       14.717126        3.132708
  S           13.897653       14.296195        3.197206
  O           14.275200       12.971889        3.651489
  C           14.658453       14.605158        1.615206
  C           15.899304       15.437215        1.928047
  C           15.504236       16.375911        3.068473
  C           14.835837       15.506256        4.111134
  H           14.901256       13.659337        1.122286
  H           13.954106       15.173939        1.003174
  H           16.240588       15.992829        1.048093
  H           16.717992       14.784492        2.255158
  H           14.793542       17.129163        2.689100
  H           16.364443       16.907833        3.477379
  H           14.166779       16.068331        4.770326
  H           15.578820       14.969325        4.709282
  N           17.946083        7.307088       11.865418
  C           18.809026        6.634478       11.476670
  N           19.922001        5.790121       11.063697
  S           19.558786        4.898915        9.794237
  O           19.008529        5.619821        8.646888
  O           20.625132        3.961150        9.425993
  C           18.196294        3.840405       10.455880
  F           17.952657        2.759796        9.662265
  F           17.010832        4.498346       10.567200
  F           18.490222        3.338138       11.696458
  N            9.712191       26.757640       19.907828
  C           10.071074       26.015356       20.725396
  N           10.452414       25.097836       21.790730
  S           11.468362       23.980472       21.283730
  O           12.653125       24.469795       20.579599
  O           11.782155       22.980374       22.310100
  C           10.445319       23.081540       20.034769
  F           10.977144       21.869630       19.710215
  F           10.312066       23.758308       18.862238
  F            9.179234       22.826882       20.492893
  N            9.718262       18.434605       13.167880
  C            9.347222       17.374322       13.461698
  N            8.842813       16.040553       13.759744
  S            9.789373       15.254534       14.771622
  O           10.128936       15.962168       16.005660
  O            9.361212       13.870471       15.002163
  C           11.351758       15.117036       13.794561
  F           12.200999       14.184700       14.310737
  F           12.057307       16.279017       13.743561
  F           11.117461       14.737027       12.499031
  N           18.735815       29.825061       10.847024
  C           17.972576       30.296098       10.109603
  N           17.056206       30.853423        9.123776
  S           15.608076       31.116148        9.733363
  O           15.569822       31.897799       10.968862
  O           14.637743       31.574572        8.733162
  C           15.070037       29.404271       10.174486
  F           13.727680       29.327944       10.396186
  F           15.663652       28.928604       11.302300
  F           15.338477       28.506213        9.174920
  N           13.200269       31.796829        6.743853
  C           13.518539       31.377097        5.709092
  N           13.994147       30.869128        4.429263
  S           13.028700       29.751383        3.832390
  O           11.613831       30.111713        3.747489
  O           13.542701       29.146895        2.598495
  C           13.159433       28.421598        5.108785
  F           12.694093       27.224326        4.653926
  F           12.454424       28.692111        6.240325
  F           14.456461       28.200800        5.491754
  N           31.278664       18.687387       31.921822
  C           30.860430       17.625569       31.707763
  N           30.275069       16.309478       31.489915
  S           30.665085       15.708581       30.067062
  O           32.093254       15.693270       29.752419
  O           29.999707       14.433142       29.779610
  C           29.884086       16.926879       28.917980
  F           29.784922       16.445064       27.647185
  F           30.575100       18.094814       28.822958
  F           28.608093       17.249796       29.299117
  N           34.625692       15.660425       11.007594
  C           35.154891       16.693921       11.013455
  N           35.811473       17.992296       10.940494
  S           35.641539       18.825908       12.287310
  O           36.015975       18.130149       13.518008
  O           36.200000       20.179638       12.199930
  C           33.810426       19.065524       12.352192
  F           33.450299       20.043303       13.230347
  F           33.135986       17.948784       12.737707
  F           33.296675       19.441131       11.138652
  N           22.820364       26.408047       16.657950
  C           23.461455       25.460297       16.855363
  N           24.319578       24.318165       17.140599
  S           23.498306       22.955042       17.212070
  O           22.632371       22.672955       16.067743
  O           24.322628       21.807113       17.605583
  C           22.384538       23.262769       18.654091
  F           21.826473       22.113326       19.127636
  F           21.345648       24.091389       18.363062
  F           23.053541       23.820442       19.711984
  N            6.841388        4.495070       19.055284
  C            6.946298        4.603788       17.904035
  N            6.998888        4.755988       16.456185
  S            8.444038        5.198247       15.952551
  O            9.560357        4.378917       16.423115
  O            8.494034        5.463840       14.510656
  C            8.630058        6.853751       16.752116
  F            9.637803        7.583303       16.196144
  F            8.910313        6.779780       18.081246
  F            7.498805        7.616717       16.626226
  N           31.833016        8.263844       23.790884
  C           32.506309        9.199927       23.654413
  N           33.298045       10.401803       23.428915
  S           34.186767       10.779989       24.695740
  O           35.024582        9.706324       25.228853
  O           34.909623       12.046202       24.533616
  C           32.895005       11.124841       25.971290
  F           33.397232       11.801197       27.042370
  F           32.322865        9.997913       26.474567
  F           31.878643       11.900703       25.478597
  N           28.817845       16.118235       22.613381
  C           29.474233       17.039107       22.350040
  N           30.353254       18.143732       21.990420
  S           29.544990       19.490860       21.726501
  O           28.619291       19.895276       22.784059
  O           30.396228       20.589489       21.256917
  C           28.510157       19.028199       20.267163
  F           27.985503       20.119333       19.641813
  F           27.452131       18.235822       20.588598
  F           29.232902       18.359161       19.314415
  N           16.696504       27.043473       17.003441
  C           16.556128       26.284010       16.136429
  N           16.445484       25.292208       15.075162
  S           14.946609       25.130451       14.560468
  O           14.267709       26.368264       14.178614
  O           14.791549       24.060611       13.568753
  C           14.094156       24.506536       16.076599
  F           12.875210       23.965942       15.795833
  F           13.869330       25.476249       17.003805
  F           14.809901       23.518413       16.700315
  N            6.647601       17.002471       20.269662
  C            6.732132       18.091175       19.874974
  N            6.911978       19.439127       19.352593
  S            5.522969       20.135866       19.002010
  O            4.520284       20.127837       20.066650
  O            5.682308       21.451427       18.372717
  C            4.879615       19.037846       17.662216
  F            3.866303       19.620452       16.961740
  F            4.384916       17.858401       18.125662
  F            5.845711       18.729092       16.740788
  N           24.375606        5.735092       25.990569
  C           24.252547        4.580640       25.973362
  N           24.059715        3.137518       26.022499
  S           24.039765        2.486098       24.568898
  O           25.170367        2.823436       23.704697
  O           23.738146        1.050541       24.586280
  C           22.548216        3.280766       23.821646
  F           22.123228        2.628022       22.703518
  F           22.758902        4.570861       23.444998
  F           21.482036        3.286995       24.682414
  N           36.163115        5.658257       21.847731
  C           35.464815        4.839184       22.283272
  N           34.611341        3.834707       22.903601
  S           33.376024        3.443461       21.976984
  O           33.706046        3.059657       20.604876
  O           32.442822        2.515127       22.624616
  C           32.462790        5.046449       21.871948
  F           31.188501        4.883772       21.417387
  F           33.047875        5.943939       21.033625
  F           32.351935        5.657232       23.093568
  N           34.569406       22.815161       29.669326
  C           33.777289       22.508906       30.461133
  N           32.816011       22.178784       31.504764
  S           31.457092       21.601596       30.906524
  O           31.596894       20.489233       29.967372
  O           30.433340       21.364177       31.930079
  C           30.834746       23.041931       29.930451
  F           29.517852       22.912427       29.604998
  F           31.495497       23.219657       28.754686
  F           30.937089       24.218284       30.625736
  N            9.183335        7.587796       26.053463
  C            9.765936        8.547034       25.755739
  N           10.498456        9.723300       25.306283
  S           10.229320       10.988132       26.236589
  O           10.427207       10.777381       27.670229
  O           10.869150       12.212130       25.742074
  C            8.418468       11.259026       25.987528
  F            8.019946       12.492067       26.409061
  F            7.644240       10.364977       26.659725
  F            8.062461       11.179138       24.666704
  N           30.360067       30.741905       23.718408
  C           30.349013       29.584158       23.630668
  N           30.348285       28.139727       23.441409
  S           30.774653       27.362078       24.764727
  O           30.041156       27.720834       25.978060
  O           30.887194       25.912580       24.568792
  C           32.510109       27.950189       25.003296
  F           33.204337       27.164891       25.874075
  F           32.585259       29.215203       25.497959
  F           33.223702       27.937705       23.833540
  N            4.837134        5.523922       23.734408
  C            5.370092        4.493251       23.777683
  N            6.026897        3.199873       23.911770
  S            5.936366        2.340564       22.573453
  O            6.376495        3.015317       21.352840
  O            6.494624        0.991599       22.717468
  C            4.112799        2.090300       22.410444
  F            3.806637        1.094555       21.532005
  F            3.456481        3.196191       21.966764
  F            3.533219        1.734600       23.600093
  N           35.609731       13.999791       33.688213
  C           34.890279       14.911035       33.703169
  N           33.977164       16.044501       33.642549
  S           33.248579       16.301824       35.035621
  O           34.124729       16.410697       36.201558
  O           32.243652       17.368584       34.970459
  C           32.279954       14.742379       35.246561
  F           31.307735       14.864709       36.193517
  F           33.043627       13.683295       35.628326
  F           31.638220       14.374481       34.093075
  N           23.873776       28.469995       31.881819
  C           24.595162       27.580987       31.688258
  N           25.506006       26.455820       31.525275
  S           25.301607       25.717210       30.128716
  O           25.329399       26.575371       28.944787
  O           26.131167       24.515611       29.986976
  C           23.570711       25.089529       30.285604
  F           23.285080       24.131189       29.359916
  F           22.630876       26.059497       30.122899
  F           23.340281       24.513676       31.507486
  N           19.677321        3.642949       26.514481
  C           18.968980        3.785866       25.605621
  N           18.130973        3.920183       24.421601
  S           16.604551        4.181912       24.794742
  O           16.356611        5.281861       25.726159
  O           15.723101        4.211946       23.622461
  C           16.163674        2.624847       25.686804
  F           14.815715        2.463145       25.804099
  F           16.658825        2.572587       26.952779
  F           16.621512        1.510113       25.034536
  N           14.037995       33.619779       12.893026
  C           13.262929       33.888005       13.714931
  N           12.231987       34.204810       14.694213
  S           12.759414       34.052616       16.189658
  O           13.999461       34.762061       16.502501
  O           11.709860       34.260080       17.193398
  C           13.148953       32.248007       16.268696
  F           13.291440       31.808087       17.550517
  F           14.303824       31.919364       15.629269
  F           12.156461       31.482008       15.715607
  N           28.097836       19.112943        5.513311
  C           28.161913       18.006714        5.166395
  N           28.172435       16.629309        4.692218
  S           29.649714       16.041710        4.591843
  O           30.471400       16.176631        5.794145
  O           29.694444       14.694228        4.013577
  C           30.404103       17.138965        3.310622
  F           31.556638       16.619308        2.802173
  F           30.726096       18.373435        3.782855
  F           29.571185       17.328042        2.239083
  N           28.220510       34.631433       13.839406
  C           27.682150       34.809560       12.826173
  N           27.070637       35.076076       11.531098
  S           26.027344       33.945561       11.117365
  O           25.003564       33.629242       12.112713
  O           25.479531       34.134180        9.769618
  C           27.116445       32.458303       10.988819
  F           26.516233       31.437871       10.314012
  F           27.474115       31.948421       12.198236
  F           28.277052       32.726635       10.311553
  N            2.333885        2.445038       11.051864
  C            2.473024        3.561608       10.765309
  N            2.696287        4.970477       10.469605
  S            2.505303        5.295161        8.921766
  O            1.250222        4.838543        8.325803
  O            2.831075        6.684416        8.581260
  C            3.851060        4.285568        8.157398
  F            4.111573        4.662727        6.874128
  F            3.562792        2.957078        8.106240
  F            5.035958        4.409465        8.834426
  N           10.510513        2.338426       35.176727
  C           11.007901        1.770638       34.294445
  N           11.607765        0.989133       33.221312
  S           11.708792        1.815348       31.863056
  O           12.348458        3.126818       31.961918
  O           12.208595        1.015543       30.739397
  C            9.928068        2.123900       31.477803
  F            9.741440        2.514842       30.185815
  F            9.372980        3.098252       32.247942
  F            9.162385        0.999959       31.645686
  N           21.875030       22.640780       36.197227
  C           21.067422       21.807245       36.162756
  N           20.050203       20.765094       36.199999
  S           19.205776       20.703886       34.850593
  O           19.984612       20.616630       33.615805
  O           18.104520       19.736215       34.904884
  C           18.388395       22.361124       34.843540
  F           17.346358       22.417108       33.967226
  F           19.227798       23.372467       34.492558
  F           17.867668       22.683958       36.069232
  N            6.626799        8.286806       36.208008
  C            5.721857        8.568152       35.537095
  N            4.538524        8.883339       34.748057
  S            4.736916       10.197403       33.869663
  O            5.935249       10.228006       33.031831
  O            3.522454       10.596811       33.150179
  C            4.969600       11.487885       35.171628
  F            4.814878       12.749100       34.679391
  F            6.203645       11.457625       35.743307
  F            4.057878       11.365347       36.187229
  N            7.454964        1.003566       35.361505
  C            6.539795        1.669783       35.103005
  N            5.417814        2.558939       34.833267
  S            4.846363        2.371615       33.358121
  O            4.517967        0.999703       32.972230
  O            3.787650        3.331096       33.025523
  C            6.294027        2.878086       32.327415
  F            5.942192        3.132050       31.035666
  F            7.270137        1.932251       32.270795
  F            6.879919        4.026744       32.791112
  N           27.530511       27.958574       10.491911
  C           28.666181       28.106794       10.300897
  N           30.096298       28.213916       10.044991
  S           30.512172       29.677191        9.572154
  O           30.060345       30.774652       10.426748
  O           31.928278       29.781545        9.203571
  C           29.588939       29.833692        7.979122
  F           30.052679       30.861966        7.214597
  F           28.259023       30.063682        8.149499
  F           29.701856       28.708308        7.205520
  N           23.564382        2.367928       21.063072
  C           24.548096        1.752265       21.024769
  N           25.747748        0.932290       20.921454
  S           27.062642        1.742900       21.310896
  O           27.024821        2.436795       22.597745
  O           28.294216        0.971552       21.110029
  C           27.097618        3.051048       20.006241
  F           28.313860        3.659541       19.920270
  F           26.195014        4.046294       20.219293
  F           26.841819        2.542506       18.759785
  N           23.302026       13.243462       24.515164
  C           23.152675       14.387258       24.382410
  N           22.954687       15.827907       24.295626
  S           23.682405       16.457057       23.025864
  O           23.387137       15.820458       21.742720
  O           23.589353       17.920265       22.976219
  C           25.457580       16.101435       23.395844
  F           26.302255       16.843769       22.626192
  F           25.800777       14.802413       23.182868
  F           25.780725       16.389984       24.695851
  N           24.585488       13.181109       12.178191
  C           24.319466       14.285347       12.419213
  N           24.005831       15.656493       12.798412
  S           24.152198       16.664936       11.573945
  O           23.435815       16.293364       10.354260
  O           23.947946       18.066548       11.955866
  C           25.954638       16.530088       11.189722
  F           26.391129       17.554032       10.403647
  F           26.278766       15.386041       10.528892
  F           26.726823       16.568065       12.321087
  N           10.099190       15.125988       30.014363
  C            9.979728       15.782407       29.064077
  N            9.876309       16.661644       27.907165
  S            9.597295       15.852944       26.563343
  O            8.469671       14.922463       26.602935
  O            9.597586       16.704856       25.369046
  C           11.125854       14.824626       26.419583
  F           11.278294       14.301304       25.170665
  F           11.143399       13.766188       27.273985
  F           12.261039       15.552025       26.664422
  N           12.239979       28.758807       31.080246
  C           12.289348       27.611941       31.254778
  N           12.402208       26.168011       31.411386
  S           12.118554       25.703983       32.908690
  O           10.871447       26.188146       33.499631
  O           12.332853       24.267575       33.115831
  C           13.493430       26.531301       33.825128
  F           13.668334       26.009074       35.071558
  F           13.294355       27.865296       34.002408
  F           14.697003       26.390535       33.185364
  N            0.998664       14.094440       23.355815
  C            1.015324       15.253858       23.295215
  N            1.034915       16.710497       23.299819
  S            1.716123       17.304463       21.988004
  O            1.194843       16.802460       20.717114
  O            1.846147       18.765369       22.018803
  C            3.443429       16.665706       22.139667
  F            4.308756       17.321900       21.316552
  F            3.557464       15.346436       21.828022
  F            3.939946       16.819029       23.407604
  N           35.148441       19.233592       23.314798
  C           34.113300       19.751771       23.405202
  N           32.819586       20.392931       23.598639
  S           32.466906       21.399192       22.415103
  O           32.571454       20.852650       21.062601
  O           31.220137       22.138452       22.641289
  C           33.808551       22.658994       22.580894
  F           33.525504       23.804723       21.899653
  F           35.009890       22.229486       22.108763
  F           34.004723       23.034247       23.884121
  N            6.792519       10.759754        8.970968
  C            6.232884        9.957173        8.345769
  N            5.521657        9.005228        7.503063
  S            5.925391        7.498972        7.828475
  O            5.836640        7.105778        9.234327
  O            5.304957        6.528369        6.920130
  C            7.720253        7.487956        7.389213
  F            8.209389        6.223161        7.255275
  F            8.504551        8.096385        8.319423
  F            7.962110        8.113924        6.194488
  N           19.699920        8.993053       16.581089
  C           20.845237        8.817371       16.506354
  N           22.267738        8.541797       16.355525
  S           23.166819        9.789794       16.770079
  O           22.892110       10.362530       18.087428
  O           24.596982        9.575202       16.523738
  C           22.650142       11.054676       15.526006
  F           23.525870       12.096445       15.457316
  F           21.434408       11.604140       15.791865
  F           22.583118       10.534725       14.259965
  N            1.104137       27.027165       35.285834
  C            2.149468       26.701096       35.672047
  N            3.426697       26.273844       36.227335
  S            4.435420       25.779312       35.097903
  O            4.643904       26.701899       33.982435
  O            5.687833       25.241918       35.640828
  C            3.542197       24.314359       34.411852
  F            4.358084       23.516902       33.666673
  F            2.503540       24.650366       33.600131
  F            3.031864       23.513170       35.399453
  N            1.350814       12.462689        5.879807
  C            2.301946       12.425819        6.544779
  N            3.458996       12.323166        7.423925
  S            4.809018       12.740292        6.688300
  O            4.791305       14.037450        6.013045
  O            6.001631       12.541237        7.519053
  C            4.927097       11.456986        5.363995
  F            6.173986       11.394471        4.817864
  F            4.074363       11.675502        4.326837
  F            4.660644       10.199813        5.839622
  N           23.573436        3.164838       17.901356
  C           24.639934        3.483860       17.571194
  N           25.999367        3.885036       17.234744
  S           26.416122        3.418890       15.769574
  O           25.492254        3.787626       14.697473
  O           27.816542        3.715263       15.448504
  C           26.338329        1.579168       15.924409
  F           26.984330        0.949151       14.903302
  F           25.067758        1.093129       15.920415
  F           26.930772        1.133642       17.076892
  N           33.662993        6.444862       15.499360
  C           32.811776        7.124224       15.096748
  N           31.698244        7.910564       14.583021
  S           31.735511        9.414740       15.106247
  O           32.998670       10.125475       14.910835
  O           30.565923       10.196990       14.691218
  C           31.535993        9.183505       16.928697
  F           31.192364       10.341397       17.559653
  F           32.668470        8.744749       17.541550
  F           30.547379        8.283289       17.228619
  N           23.667027        5.347964       33.593176
  C           24.470592        4.509878       33.583434
  N           25.464761        3.447137       33.649853
  S           25.669452        2.729664       32.242361
  O           25.939746        3.614932       31.110043
  O           26.584799        1.585151       32.308167
  C           24.000220        1.992881       31.950100
  F           24.021704        1.040300       30.975919
  F           23.070696        2.906468       31.560301
  F           23.506226        1.375925       33.069490
  N            5.837712       33.084065       26.985205
  C            4.768125       32.632241       26.991434
  N            3.422370       32.079053       26.919840
  S            3.146896       31.021928       28.079280
  O            3.443525       31.475403       29.437688
  O            1.837571       30.370389       27.964101
  C            4.376722       29.700897       27.683046
  F            4.102636       28.532478       28.328470
  F            5.649982       30.030894       28.030194
  F            4.394836       29.397910       26.346793
  N           13.371366       23.983318       18.539992
  C           13.096030       22.855327       18.545170
  N           12.744216       21.443600       18.471325
  S           13.325563       20.616296       19.702302
  O           13.022386       21.151802       21.029034
  O           13.077788       19.174407       19.594308
  C           15.146982       20.809767       19.458173
  F           15.862413       19.906999       20.186232
  F           15.610361       22.035929       19.822051
  F           15.515099       20.617107       18.152389
  N           34.350681       30.033777       21.409946
  C           33.878145       30.939176       20.857529
  N           33.224615       32.072999       20.217573
  S           34.262577       33.010222       19.454718
  O           35.157105       32.336003       18.514426
  O           33.643942       34.216780       18.894711
  C           35.317233       33.613724       20.846868
  F           36.062211       34.699088       20.494884
  F           36.201358       32.681542       21.294037
  F           34.570314       34.003810       21.927445
  N           15.147357       12.706545       17.179227
  C           14.755202       11.790812       16.582698
  N           14.326687       10.649573       15.785108
  S           13.441619        9.628100       16.628286
  O           12.306038       10.209627       17.343256
  O           13.089435        8.417504       15.878269
  C           14.642429        9.063468       17.914305
  F           14.225377        7.929982       18.545320
  F           14.851060        9.982984       18.894898
  F           15.868813        8.767432       17.379473
  N           10.511383       18.522440        6.763373
  C           11.046219       19.552428        6.799092
  N           11.699279       20.854199        6.765839
  S           11.717659       21.551799        8.197871
  O           12.245938       20.740719        9.294215
  O           12.272068       22.909697        8.168849
  C            9.913730       21.777020        8.529108
  F            9.682639       22.663100        9.538246
  F            9.286214       20.625457        8.890668
  F            9.246694       22.267278        7.437133
  N           17.986791       19.458703       10.896419
  C           17.470805       18.461512       10.600498
  N           16.752648       17.249044       10.231213
  S           17.667908       16.238108        9.407802
  O           18.956066       15.906331       10.015646
  O           16.937024       15.059006        8.930698
  C           18.038731       17.220487        7.887268
  F           18.521202       16.443086        6.877432
  F           18.969120       18.192168        8.089282
  F           16.921898       17.837247        7.387277
  N           18.121054       12.972633       33.454804
  C           18.402139       13.522474       32.471510
  N           18.809956       14.253908       31.279500
  S           18.525501       13.431166       29.945378
  O           17.164538       12.918204       29.791921
  O           19.026900       14.099713       28.739665
  C           19.621989       11.960822       30.169879
  F           19.814714       11.280134       29.005224
  F           19.129754       11.054195       31.056633
  F           20.870533       12.311956       30.612081
  N           18.660893       14.751887        3.326504
  C           19.633362       15.384730        3.371371
  N           20.854670       16.167086        3.507479
  S           21.722512       16.159952        2.171628
  O           21.010818       16.528584        0.948312
  O           23.008898       16.849792        2.318020
  C           22.153244       14.369994        2.013135
  F           23.176975       14.162704        1.137975
  F           21.119324       13.606188        1.567928
  F           22.561415       13.830830        3.204940
  N            4.841340       18.623633       26.780165
  C            5.321766       19.191883       25.888828
  N            5.978380       19.935617       24.822095
  S            5.774832       19.248119       23.399557
  O            4.392925       18.938978       23.033956
  O            6.517171       19.917668       22.325902
  C            6.632771       17.629058       23.638685
  F            6.893165       17.005106       22.455563
  F            5.912268       16.743593       24.378569
  F            7.844202       17.775094       24.262230
  N           15.767207       10.712409       10.599940
  C           15.081126        9.953925       11.149662
  N           14.269836        9.007009       11.902894
  S           12.749722        9.009036       11.426501
  O           12.532718        8.841425        9.989937
  O           11.890421        8.143948       12.242176
  C           12.228234       10.732421       11.841942
  F           10.872838       10.873102       11.845386
  F           12.699101       11.661647       10.967058
  F           12.649538       11.111564       13.089522
  N           26.428825        2.613989        0.999532
  C           25.660451        2.969306        1.794234
  N           24.698562        3.488262        2.757382
  S           23.755552        2.343334        3.338390
  O           24.439263        1.168613        3.878269
  O           22.707846        2.857392        4.227297
  C           22.864227        1.784065        1.819391
  F           21.755761        1.048560        2.114748
  F           23.626072        1.003515        1.006412
  F           22.425950        2.838331        1.061674
  N           21.978233       30.608880       29.017982
  C           20.859550       30.361343       28.829634
  N           19.478918       29.978282       28.566352
  S           18.451783       30.762147       29.498151
  O           18.586762       32.218355       29.510032
  O           17.064918       30.315036       29.328456
  C           18.943836       30.172338       31.178808
  F           17.990255       30.435472       32.116008
  F           20.088013       30.748508       31.636507
  F           19.140633       28.816655       31.211873
  N           16.481452        3.191614       21.341029
  C           16.286406        4.333502       21.420088
  N           16.116703        5.778557       21.492308
  S           14.589415        6.209879       21.354278
  O           13.654293        5.537860       22.255852
  O           14.404153        7.664591       21.314406
  C           14.187652        5.628044       19.647041
  F           13.040767        6.187796       19.169306
  F           14.009272        4.281828       19.566526
  F           15.168835        5.953546       18.747581
  N           10.174769       18.505053        9.544786
  C            9.039642       18.301366        9.409880
  N            7.625433       17.976517        9.280706
  S            6.723034       19.280274        9.127106
  O            7.131660       20.217592        8.081467
  O            5.286098       18.985604        9.105043
  C            7.013728       20.130609       10.741735
  F            6.084208       21.095724       10.989616
  F            8.223555       20.748526       10.813129
  F            6.947424       19.262927       11.800240
  N           29.123950        4.101615       25.968583
  C           29.548065        5.176259       25.852535
  N           30.086598        6.511031       25.627668
  S           29.612575        7.544003       26.743899
  O           29.831551        7.129150       28.129123
  O           30.052306        8.918322       26.479356
  C           27.783483        7.566682       26.482162
  F           27.190359        8.633895       27.087273
  F           27.157185        6.462713       26.971656
  F           27.454013        7.655008       25.155004
  Li          35.086819       22.983409        4.276206
  Li          16.653689       32.003703       12.983460
  Li          23.192020       20.584189       15.663878
  Li          12.225197       17.924345       12.262545
  Li          32.782378        7.953647        1.325298
  Li          35.827042       34.354732       17.215785
  Li          24.909033       10.215177       33.871913
  Li          18.624979        3.749013       19.665830
  Li          30.068724       28.763442       12.881382
  Li          33.697597       22.339915       19.895908
  Li           8.170617        3.113254       23.431360
  Li          25.406191       36.200140       19.184089
  Li          15.912087       35.805854       17.816014
  Li           3.157334        6.155931       25.004334
  Li          11.630652       17.500081       25.866794
  Li          34.634725       28.049121       28.399799
  Li           8.357533       12.930202       13.285257
  Li          31.647866        7.489897       12.420423
  Li          18.843839       32.289659       10.436269
  Li          28.940535       25.106884       12.258921
  Li          18.190562        5.518796        6.613500
  Li           0.999796       20.187797       17.105524
  Li          24.521181       20.412525        9.809683
  Li          26.707678        5.275461        9.809235
  Li          31.780355       14.297986        8.256840
  Li          34.980650        6.130715       24.635927
  Li          10.991522        3.835778       33.541405
  Li           4.773761       11.457677       22.128593
  Li           5.563858        5.273988       35.527965
  Li          14.979648       24.987572       26.266131
  Li           9.261748       28.908550       28.769157
  Li          29.913688       29.045089        3.354551
  Li          10.575597       32.165417        8.892936
  Li          28.358524       27.344748       20.610225
  Li          28.064538        9.094652       36.042915
  Li           9.104267        8.373062       28.106839
  Li          19.446286       29.663167       34.256899
  Li          20.201275        9.158432        3.385981
  Li          21.827859       35.972665       32.720453
  Li          23.118277        2.105266       15.915929
  Li          31.612805        1.889768       16.916144
  Li           2.511787       19.886735       18.674990
  Li          15.990450       34.236600        2.697362
  Li          21.959145       29.598008       31.513170
  Li          14.556491       17.069401        8.990220
  Li          12.217395       12.449453       15.663172
  Li          29.837298       20.301101        4.880732
  Li          34.510553       26.434540        3.605039
  Li          30.044387       14.643166       23.691380
  Li           9.295183        5.791922        5.392191
  Li          12.999591        9.633119       35.096999
  Li          17.306213        7.244651       26.023032
  Li           6.134285       14.918258       33.849875
  Li           3.733088       28.183904        8.893270
  Li           8.169128       30.898565       19.547911
  Li          27.201279        5.945741       19.817136
  Li          22.147549       23.178112        3.183699
  Li           7.705691       28.477372       30.775652
  Li          10.493071        8.631677       18.447196
  Li          17.532759       18.783488       14.697793
