12
FTA
O       -2.680000     0.160000     1.610000
S       -1.670000    -0.000000     0.580000
O       -1.590000     1.100000    -0.370000
F       -2.300000    -1.180000    -0.300000
N       -0.310000    -0.610000     1.100000
S        0.740000    -0.920000    -0.050000
O        0.230000    -1.570000    -1.260000
O        1.950000    -1.560000     0.470000
C        1.270000     0.790000    -0.530000
F        0.700000     1.240000    -1.680000
F        2.620000     0.840000    -0.750000
F        1.040000     1.710000     0.450000
