        4556
  Built with Packmol                                             
  O            1.484811       22.422711       20.416904
  C            1.743051       23.358423       19.677544
  O            1.000000       23.723399       18.595293
  C            1.756085       24.669710       17.881198
  C            2.635750       25.259155       18.938621
  O            2.834424       24.171570       19.829849
  H            2.329303       24.143663       17.109450
  H            1.119768       25.418113       17.408448
  H            2.143197       26.073615       19.476251
  H            3.594298       25.617089       18.546740
  O           18.578983       39.652962       20.560503
  C           18.437121       39.022710       21.595664
  O           17.354720       39.110962       22.418597
  C           17.685780       38.429662       23.603219
  C           18.720390       37.450085       23.145602
  O           19.362950       38.139092       22.083064
  H           18.088331       39.155346       24.318925
  H           16.816254       37.938446       24.040405
  H           18.273272       36.532262       22.754852
  H           19.440876       37.191668       23.929579
  O           33.130325       22.535282       14.090931
  C           33.759119       22.351640       13.061469
  O           34.296460       21.159085       12.679794
  C           35.136707       21.422002       11.583454
  C           34.546711       22.669048       11.003642
  O           34.023578       23.333692       12.144334
  H           36.154780       21.578833       11.957395
  H           35.138697       20.596108       10.871841
  H           33.728368       22.453537       10.311637
  H           35.287845       23.297195       10.497034
  O           17.950533        3.987258       29.659175
  C           17.925473        4.070175       30.876301
  O           18.683862        4.929004       31.613770
  C           18.546154        4.543393       32.958925
  C           17.213280        3.863260       32.975269
  O           17.130754        3.293780       31.677008
  H           19.364960        3.859133       33.208411
  H           18.579765        5.402998       33.628589
  H           16.391438        4.572288       33.105094
  H           17.139625        3.085364       33.743353
  O           10.914007       15.712980       32.702712
  C           11.278876       15.806754       33.863305
  O           11.909478       14.822176       34.562983
  C           11.932939       15.228528       35.908875
  C           11.864036       16.719953       35.807362
  O           11.091398       16.923577       34.633407
  H           11.057021       14.805425       36.413506
  H           12.837312       14.890047       36.414878
  H           12.850809       17.168441       35.665453
  H           11.380415       17.185536       36.673296
  O            9.167573        6.928236       32.025917
  C            8.060480        6.781740       32.517632
  O            6.884000        6.981421       31.859891
  C            5.864808        6.952355       32.828138
  C            6.460853        6.111994       33.913460
  O            7.847280        6.403573       33.816491
  H            5.670510        7.979451       33.157111
  H            4.945223        6.522545       32.430486
  H            6.309226        5.043934       33.736665
  H            6.081440        6.367415       34.909103
  O           22.306704       10.889579       19.133241
  C           21.151150       10.500851       19.083404
  O           20.718678        9.286489       19.524874
  C           19.398211        9.132115       19.067015
  C           18.931972       10.545761       18.913304
  O           20.121390       11.236409       18.559907
  H           19.423640        8.596650       18.111227
  H           18.789994        8.571184       19.776894
  H           18.547984       10.956317       19.850853
  H           18.171483       10.662713       18.133255
  O           11.587912       23.030804        9.207709
  C           11.549005       22.702415        8.033168
  O           12.392809       21.807596        7.446742
  C           12.181708       21.895935        6.059395
  C           10.774967       22.398101        5.968233
  O           10.648646       23.203419        7.131033
  H           12.904573       22.607064        5.643870
  H           12.307880       20.929169        5.571602
  H           10.044581       21.586233        6.017295
  H           10.590470       22.991524        5.065841
  O            4.567295       30.082683       36.810468
  C            3.783029       31.001404       36.983030
  O            2.433980       30.859473       37.111575
  C            1.879323       32.149763       37.043686
  C            3.005101       33.020578       37.505969
  O            4.155271       32.317078       37.060103
  H            1.597967       32.351311       36.003918
  H            0.997912       32.241931       37.678603
  H            3.039794       33.103973       38.595391
  H            2.974642       34.025674       37.070818
  O           21.496808        5.252649        7.061534
  C           21.161392        4.079450        7.061924
  O           19.914988        3.626318        7.374571
  C           20.007566        2.228683        7.497638
  C           21.181381        1.895444        6.631318
  O           22.005390        3.045260        6.755951
  H           20.186042        1.985030        8.551051
  H           19.094550        1.734828        7.164457
  H           20.897207        1.773988        5.582751
  H           21.716891        0.999016        6.963199
  O           28.636544       39.015658       20.757862
  C           27.672291       38.268960       20.718396
  O           27.390899       37.414422       19.695076
  C           26.089917       36.928415       19.914946
  C           25.932877       37.056999       21.397581
  O           26.723979       38.195874       21.703720
  H           25.385723       37.563603       19.365814
  H           25.983582       35.897762       19.575906
  H           26.335218       36.191345       21.930277
  H           24.893260       37.215177       21.705276
  O           36.938612       32.279469       13.674109
  C           35.899044       32.898211       13.514872
  O           35.810464       34.144583       12.971448
  C           34.496645       34.594075       13.192659
  C           33.722951       33.318076       13.305029
  O           34.666336       32.423211       13.875853
  H           34.480890       35.172942       14.123016
  H           34.143369       35.220872       12.373621
  H           33.416598       32.935568       12.327872
  H           32.839623       33.408792       13.946902
  O            9.471132       18.417961        4.701366
  C           10.456024       17.831186        4.283534
  O           11.744093       18.168508        4.572826
  C           12.565660       17.417960        3.713289
  C           11.719257       16.223495        3.403037
  O           10.400334       16.747966        3.447452
  H           12.776622       18.020478        2.822577
  H           13.505708       17.144994        4.193183
  H           11.816676       15.442329        4.161515
  H           11.930816       15.793921        2.417538
  O           11.314219        3.411527       17.855165
  C           10.511989        4.279557       17.552094
  O            9.205194        4.300547       17.937379
  C            8.574647        5.309389       17.187882
  C            9.703884        6.234693       16.859193
  O           10.816617        5.357530       16.764264
  H            8.137099        4.853268       16.292669
  H            7.788913        5.803110       17.760037
  H            9.888689        6.957841       17.657882
  H            9.555100        6.772834       15.916448
  O           11.449439       10.311525        1.184926
  C           11.316575       11.144830        2.066318
  O           11.482512       10.903560        3.397052
  C           11.002726       12.035061        4.080142
  C           11.161613       13.126468        3.068714
  O           10.966867       12.448746        1.836088
  H            9.953077       11.861517        4.342857
  H           11.573353       12.227466        4.988913
  H           12.166391       13.556849        3.082622
  H           10.426335       13.930023        3.187733
  O           31.824428       39.818696        9.519752
  C           30.663540       39.465615        9.391023
  O           29.621637       40.300461        9.118861
  C           28.443256       39.554056        9.296058
  C           28.899827       38.149397        9.055484
  O           30.243104       38.168243        9.515756
  H           28.088355       39.705781       10.321692
  H           27.664609       39.860933        8.597463
  H           28.891798       37.890644        7.993418
  H           28.312557       37.408239        9.608926
  O           21.220356       32.899626       32.695745
  C           20.326400       32.239458       32.191841
  O           19.127968       31.972561       32.782711
  C           18.494129       30.993975       31.996761
  C           19.101263       31.207716       30.645797
  O           20.411613       31.660143       30.953845
  H           18.736008       30.008195       32.409838
  H           17.411798       31.124347       31.988800
  H           18.581098       31.984728       30.079512
  H           19.140293       30.292332       30.044924
  O            2.074538       36.316031        7.371005
  C            2.141121       35.126378        7.107961
  O            3.123348       34.548040        6.361398
  C            2.707462       33.233054        6.087626
  C            1.784270       32.932215        7.226315
  O            1.220207       34.201370        7.522421
  H            2.190873       33.227523        5.121186
  H            3.552037       32.544887        6.047384
  H            2.321472       32.568212        8.106040
  H            1.000409       32.213458        6.962780
  O           36.246015       13.053894       14.659963
  C           36.407315       13.054916       15.869460
  O           36.998139       14.059702       16.575103
  C           37.211590       13.573567       17.877106
  C           36.157504       12.520472       18.016007
  O           36.022448       12.028748       16.690651
  H           38.224071       13.157604       17.929618
  H           37.108328       14.362537       18.622332
  H           35.200097       12.937186       18.339615
  H           36.446195       11.714093       18.699315
  O            8.871220       16.143317       25.266281
  C            8.010539       16.739835       24.639947
  O            6.681641       16.730632       24.940855
  C            6.012835       17.321660       23.854354
  C            7.062888       18.205705       23.258325
  O            8.264681       17.499299       23.529035
  H            5.699269       16.527498       23.167417
  H            5.136174       17.882374       24.179263
  H            7.106048       19.181458       23.749288
  H            6.936218       18.352862       22.179993
  O           24.457475        3.842454        4.985080
  C           24.507235        5.024069        5.285431
  O           23.490984        5.914897        5.111476
  C           24.025079        7.194425        5.345250
  C           25.179445        6.912021        6.254694
  O           25.608616        5.625411        5.833925
  H           24.345345        7.616385        4.385938
  H           23.291365        7.858451        5.802670
  H           24.873756        6.859360        7.302921
  H           25.990917        7.641412        6.154685
  O           34.731103       24.855844       40.176063
  C           35.418295       24.000498       39.642161
  O           36.061449       22.995797       40.300591
  C           36.928414       22.389842       39.374151
  C           36.272504       22.685541       38.061998
  O           35.648976       23.940204       38.293588
  H           37.913537       22.861765       39.462019
  H           37.025527       21.319280       39.555714
  H           35.505279       21.948575       37.810511
  H           36.986139       22.756251       37.233611
  O           13.681261       30.361889       29.270014
  C           12.971724       31.089643       29.945167
  O           13.244741       32.392953       30.234032
  C           12.328193       32.792769       31.222559
  C           11.171474       31.870721       30.996222
  O           11.796210       30.687250       30.521143
  H           12.791667       32.644775       32.204491
  H           12.049267       33.840779       31.111323
  H           10.490672       32.246120       30.227727
  H           10.602284       31.666596       31.909926
  O            5.629161       29.411983        4.908643
  C            6.095052       30.528902        5.064647
  O            7.344557       30.791636        5.540367
  C            7.400391       32.172272        5.800805
  C            6.372112       32.728861        4.866862
  O            5.412985       31.684415        4.790649
  H            7.139335       32.337000        6.852287
  H            8.394446       32.577106        5.609852
  H            6.778948       32.911122        3.868731
  H            5.910616       33.650275        5.239042
  O            7.114055       35.736791        9.920841
  C            5.987015       35.321382       10.135587
  O            5.514796       34.948042       11.357972
  C            4.282706       34.306142       11.141131
  C            3.819307       34.903153        9.849528
  O            5.035734       35.160814        9.163587
  H            4.463530       33.228389       11.059586
  H            3.583801       34.492368       11.956823
  H            3.289274       35.847347        9.999737
  H            3.184674       34.224922        9.268372
  O           13.167190       15.221655       10.411039
  C           14.305904       14.864496       10.156739
  O           14.774188       14.587677        8.907467
  C           16.032658       13.981431        9.068154
  C           16.491773       14.513075       10.389505
  O           15.276513       14.679687       11.105035
  H           15.893886       12.894499        9.083042
  H           16.712171       14.245694        8.257644
  H           16.983523       15.484643       10.293393
  H           17.159911       13.824493       10.918606
  O           30.931936       13.991347       36.653008
  C           30.593711       12.828616       36.502805
  O           29.382609       12.425651       36.025888
  C           29.300585       11.038334       36.239721
  C           30.737167       10.619962       36.264130
  O           31.390612       11.757466       36.807906
  H           28.800892       10.864990       37.199492
  H           28.739080       10.542413       35.447715
  H           31.127732       10.431813       35.260606
  H           30.914905        9.737447       36.888692
  O           10.435974       12.958831       13.477962
  C           10.408341       14.170738       13.617315
  O            9.281633       14.902719       13.843883
  C            9.636790       16.255196       13.696335
  C           11.100847       16.250408       14.006035
  O           11.517811       14.970965       13.552422
  H            9.431628       16.556175       12.662788
  H            9.072777       16.894918       14.375411
  H           11.294361       16.327313       15.079179
  H           11.650550       17.042487       13.485518
  O           27.656406       19.324163       13.635595
  C           26.882874       20.184285       13.247345
  O           25.675461       20.459279       13.815793
  C           24.998777       21.325019       12.938472
  C           26.117184       21.996059       12.204803
  O           27.120697       20.991991       12.167275
  H           24.368941       20.722138       12.274589
  H           24.373536       22.036113       13.478769
  H           26.502618       22.863468       12.747061
  H           25.839725       22.302558       11.190124
  O           12.940071        6.423047       10.110089
  C           11.916193        6.962123       10.497352
  O           10.655911        6.504082       10.255511
  C            9.769106        7.522524       10.647244
  C           10.555581        8.270367       11.677577
  O           11.893801        8.121177       11.226455
  H            9.540901        8.138964        9.770417
  H            8.842073        7.114625       11.050640
  H           10.463324        7.822291       12.670410
  H           10.284042        9.330221       11.736543
  O           13.799180        3.511860       30.142903
  C           13.118302        4.488706       30.409504
  O           12.680995        5.404386       29.500167
  C           12.153857        6.484702       30.229647
  C           11.751581        5.848189       31.522870
  O           12.705985        4.807848       31.675855
  H           12.944768        7.231527       30.362361
  H           11.309592        6.943320       29.714491
  H           10.752038        5.408575       31.471361
  H           11.795143        6.539801       32.371560
  O           15.730775       39.475851        3.384207
  C           16.400717       38.644708        3.975204
  O           17.393784       38.933273        4.862419
  C           18.071430       37.729056        5.122724
  C           17.028305       36.693149        4.843106
  O           16.251771       37.292641        3.816361
  H           18.923552       37.656293        4.437527
  H           18.432259       37.685342        6.150533
  H           16.388938       36.508885        5.710433
  H           17.451234       35.741828        4.501611
  O           17.307347        1.442939       20.754473
  C           16.144585        1.780808       20.905232
  O           15.701065        3.069150       20.897274
  C           14.368783        3.045150       21.346217
  C           13.923383        1.661000       20.992455
  O           15.116574        0.901184       21.117259
  H           14.364921        3.219170       22.428161
  H           13.766317        3.810864       20.857119
  H           13.566318        1.594891       19.961370
  H           13.148648        1.276196       21.664921
  O           30.644080       31.066310       20.936397
  C           31.095504       32.063068       21.476387
  O           31.148485       32.262291       22.823274
  C           31.498310       33.609395       23.023359
  C           32.238734       33.950762       21.768512
  O           31.605641       33.135034       20.793636
  H           30.577637       34.193261       23.134547
  H           32.113949       33.736421       23.914062
  H           33.295709       33.678179       21.827689
  H           32.156670       35.009396       21.498216
  O           17.317110        4.631569       22.844341
  C           18.402959        4.083120       22.749291
  O           19.605122        4.702646       22.915401
  C           20.592858        3.799884       22.483547
  C           19.935014        2.469678       22.676396
  O           18.563276        2.756958       22.447472
  H           20.813109        4.005740       21.429976
  H           21.508380        3.896736       23.067448
  H           20.054263        2.096076       23.696788
  H           20.292838        1.709744       21.972860
  O           30.250049       15.854390       15.397724
  C           31.291049       16.142165       14.829918
  O           31.372499       16.704093       13.591289
  C           32.722969       16.645196       13.204167
  C           33.443806       16.613639       14.515197
  O           32.534381       15.926054       15.361821
  H           32.876846       15.728879       12.623146
  H           33.004943       17.506395       12.598093
  H           33.613001       17.616645       14.915637
  H           34.400734       16.082417       14.464281
  O            3.017985       10.103573       30.541009
  C            4.179493        9.971017       30.191399
  O            4.827816       10.791222       29.317591
  C            6.043839       10.163744       28.994081
  C            6.303352        9.303990       30.191109
  O            4.995746        8.960830       30.625858
  H            5.897014        9.573555       28.082478
  H            6.838926       10.890702       28.827143
  H            6.810549        9.852519       30.989149
  H            6.879952        8.403105       29.953542
  O            5.487429       31.107667       27.605768
  C            6.706469       31.112919       27.658835
  O            7.490748       29.998718       27.651008
  C            8.794561       30.414827       27.973537
  C            8.804902       31.845839       27.535934
  O            7.460723       32.252624       27.746429
  H            8.933634       30.310091       29.055475
  H            9.546075       29.818751       27.455444
  H            9.045400       31.949523       26.474609
  H            9.492237       32.466896       28.121048
  O           23.490333       21.596674       23.962675
  C           23.351507       20.663186       24.736125
  O           24.165409       20.404332       25.797802
  C           23.821260       19.126977       26.274272
  C           22.396265       18.982926       25.840636
  O           22.353707       19.730717       24.634154
  H           24.477521       18.390882       25.796374
  H           23.932866       19.058531       27.356565
  H           21.701228       19.426615       26.558315
  H           22.107621       17.941565       25.659666
  O           16.125545       16.679200       23.168700
  C           15.833510       17.831497       23.444065
  O           15.656666       18.828761       22.532588
  C           15.580255       20.032958       23.254509
  C           15.092221       19.585852       24.596641
  O           15.653176       18.287386       24.722793
  H           16.583095       20.472212       23.302130
  H           14.899719       20.741783       22.782346
  H           14.002493       19.507103       24.632603
  H           15.431405       20.233765       25.412522
  O            7.563948        3.162616       31.309031
  C            7.961015        3.934886       30.451804
  O            7.616722        5.250684       30.369731
  C            8.075234        5.715851       29.124545
  C            9.212800        4.791671       28.822494
  O            8.807571        3.577031       29.436529
  H            7.259776        5.622335       28.398471
  H            8.391858        6.757731       29.176846
  H           10.147329        5.126612       29.280174
  H            9.372178        4.646666       27.748217
  O           28.617530       16.286136       10.450486
  C           27.769252       16.572953       11.279376
  O           27.986456       16.645022       12.622592
  C           26.725432       16.754900       13.234839
  C           25.885759       17.369217       12.159217
  O           26.465012       16.853275       10.969734
  H           26.383465       15.749658       13.505849
  H           26.766765       17.374041       14.131196
  H           25.964203       18.459508       12.148634
  H           24.829288       17.086999       12.227939
  O           32.386672       36.618557       35.081677
  C           33.294864       37.210568       34.521669
  O           34.105613       36.670169       33.569170
  C           35.158671       37.579395       33.365517
  C           34.552522       38.886497       33.769830
  O           33.634467       38.510689       34.785972
  H           35.994816       37.291206       34.012594
  H           35.492049       37.581871       32.327560
  H           34.002464       39.355762       32.949936
  H           35.289714       39.597347       34.159367
  O            1.791717       10.112944       28.340633
  C            1.965176        9.053086       28.919866
  O            0.999437        8.366561       29.592647
  C            1.648965        7.349172       30.313849
  C            2.895713        7.121294       29.518180
  O            3.171326        8.407578       28.983288
  H            1.861789        7.721524       31.322293
  H            1.034048        6.451753       30.384676
  H            2.735451        6.420839       28.694360
  H            3.734476        6.769507       30.129100
  O           13.038358       26.480031       16.518833
  C           14.006855       26.961630       17.083612
  O           14.468836       28.229135       16.892286
  C           15.721798       28.307027       17.525625
  C           15.626055       27.252748       18.583325
  O           14.777546       26.281648       17.988686
  H           16.498320       28.083694       16.785331
  H           15.899180       29.297784       17.944475
  H           15.153349       27.626909       19.495220
  H           16.596832       26.813078       18.837849
  O           21.410194        0.999213       28.945236
  C           22.398534        1.409542       28.358964
  O           23.622370        1.591779       28.929592
  C           24.404886        2.299713       28.000293
  C           23.775499        1.938304       26.691608
  O           22.409312        1.758093       27.034617
  H           24.320361        3.369859       28.220620
  H           25.453118        2.004405       28.050330
  H           24.168196        0.999727       26.291781
  H           23.883076        2.722816       25.934331
  O           25.505364       30.600767       31.063950
  C           25.052235       30.365477       29.955702
  O           25.742052       29.769081       28.943247
  C           24.962180       29.906567       27.781354
  C           23.573698       30.031067       28.325427
  O           23.777103       30.683326       29.570330
  H           25.284281       30.811180       27.253313
  H           25.071465       29.046641       27.120230
  H           23.113957       29.055900       28.506224
  H           22.914045       30.624074       27.682231
  O           29.090327       33.545298       24.833512
  C           28.886032       33.784789       26.012414
  O           29.631591       34.632850       26.774997
  C           29.231507       34.440905       28.109235
  C           27.830786       33.933840       27.966880
  O           27.874608       33.217941       26.741251
  H           29.897039       33.700380       28.567045
  H           29.279292       35.368366       28.680227
  H           27.106105       34.747370       27.877406
  H           27.529197       33.274550       28.788392
  O            5.865476       38.649756        5.052441
  C            5.086276       38.534570        4.120519
  O            4.412981       39.565414        3.536879
  C            3.449012       38.994494        2.687223
  C            4.043223       37.660972        2.358541
  O            4.769706       37.337669        3.535103
  H            2.508208       38.904900        3.241984
  H            3.285279       39.604380        1.798555
  H            4.737752       37.716657        1.516206
  H            3.287299       36.895945        2.149228
  O           11.419275        6.589414       27.525048
  C           12.469197        6.179879       27.057241
  O           13.701099        6.405979       27.593799
  C           14.645211        5.989158       26.638805
  C           13.891465        4.963948       25.851270
  O           12.554224        5.438343       25.909027
  H           14.927651        6.855613       26.030214
  H           15.536934        5.575040       27.109801
  H           13.937704        3.974518       26.313753
  H           14.230004        4.889413       24.811878
  O           22.717566       27.051854       27.689767
  C           23.409551       26.677570       28.622488
  O           24.502851       25.872657       28.506684
  C           24.860192       25.479473       29.808534
  C           24.320487       26.591613       30.651899
  O           23.171666       27.009975       29.929553
  H           24.376043       24.520651       30.025696
  H           25.939715       25.368416       29.912445
  H           25.019235       27.429190       30.724127
  H           24.044705       26.267438       31.661529
  O           12.622282       12.329436       24.563626
  C           11.576248       12.688548       24.048115
  O           11.165264       12.339827       22.796682
  C           10.054026       13.145847       22.492410
  C            9.505855       13.480703       23.843994
  O           10.667629       13.510379       24.660083
  H           10.406960       14.033572       21.955491
  H            9.330689       12.615329       21.872867
  H            8.829586       12.706898       24.216669
  H            8.991666       14.447902       23.869198
  O           27.642026       36.076152       24.710660
  C           28.132473       37.169350       24.479831
  O           29.416736       37.376398       24.074371
  C           29.654175       38.759620       24.160518
  C           28.282998       39.342015       24.018781
  O           27.454151       38.351924       24.609824
  H           30.097768       38.974376       25.139295
  H           30.331038       39.100490       23.376831
  H           27.995594       39.466984       22.971508
  H           28.169746       40.300267       24.537845
  O           22.620298       40.293646        5.237948
  C           23.012134       39.186188        5.567949
  O           22.282226       38.040084        5.466561
  C           22.983834       37.045506        6.170593
  C           24.398078       37.531151        6.111742
  O           24.249386       38.943385        6.102509
  H           22.598820       37.010398        7.195987
  H           22.863739       36.065621        5.708097
  H           24.901428       37.220902        5.192294
  H           24.996017       37.211625        6.972481
  O           18.183702       16.272543       14.123773
  C           19.046522       17.008109       13.672792
  O           20.029266       16.619309       12.812763
  C           20.947092       17.681638       12.734340
  C           20.108118       18.872209       13.077944
  O           19.152851       18.337836       13.982660
  H           21.741775       17.507395       13.468519
  H           21.387416       17.759379       11.740071
  H           19.585664       19.272726       12.205231
  H           20.681241       19.676552       13.552353
  O           37.634994       27.514709       10.898463
  C           36.982054       27.435869        9.870672
  O           35.727991       27.942112        9.704408
  C           35.239432       27.431670        8.488736
  C           36.491386       27.153044        7.717778
  O           37.421477       26.810023        8.734571
  H           34.669935       26.519611        8.700212
  H           34.593393       28.149245        7.982554
  H           36.853957       28.038186        7.188564
  H           36.379349       26.329797        7.003487
  O           22.542171       25.838292       35.187190
  C           22.578723       25.625208       36.388089
  O           23.485058       24.818677       37.008301
  C           23.039650       24.645151       38.330648
  C           22.224350       25.876704       38.571405
  O           21.695874       26.164870       37.285219
  H           22.435886       23.731718       38.375473
  H           23.873740       24.558921       39.027324
  H           22.838935       26.718974       38.899834
  H           21.416210       25.719863       39.294462
  O            8.542860        8.748934       14.607565
  C            7.583487        8.493320       15.316905
  O            7.622161        7.695228       16.420605
  C            6.289152        7.458625       16.800348
  C            5.570856        8.652698       16.254782
  O            6.319737        8.970048       15.090709
  H            5.956822        6.524567       16.333454
  H            6.188735        7.374744       17.882652
  H            5.604939        9.502363       16.941738
  H            4.526918        8.442643       15.996769
  O           33.191954        4.294201        6.964202
  C           33.683824        5.406535        6.865830
  O           33.012048        6.575107        7.065220
  C           33.852036        7.610382        6.618314
  C           35.217934        7.016379        6.762823
  O           34.990707        5.634753        6.526015
  H           33.603372        7.831538        5.574209
  H           33.728859        8.513780        7.215976
  H           35.616554        7.142858        7.772826
  H           35.937559        7.418447        6.041033
  O            3.011651       28.663224        3.951459
  C            2.873254       29.787648        3.498230
  O            3.860070       30.513168        2.901224
  C            3.369404       31.822029        2.748810
  C            1.887518       31.618641        2.703568
  O            1.696134       30.486379        3.539006
  H            3.681553       32.412098        3.617880
  H            3.750192       32.290517        1.841055
  H            1.535742       31.380479        1.696328
  H            1.326069       32.478864        3.084740
  O           37.448073        5.767263       28.105836
  C           37.984882        6.807087       27.760145
  O           37.579362        7.582672       26.715817
  C           38.590125        8.535633       26.498278
  C           39.240209        8.643710       27.841822
  O           39.088347        7.336256       28.374836
  H           39.274248        8.146653       25.735670
  H           38.179026        9.487091       26.160305
  H           38.724119        9.354706       28.492310
  H           40.299896        8.916014       27.783383
  O           26.687261       26.530757       22.844070
  C           26.285287       26.278625       23.968235
  O           26.471096       25.093094       24.613673
  C           25.656354       25.119816       25.759353
  C           25.519153       26.584081       26.035947
  O           25.573952       27.159390       24.738790
  H           24.696683       24.651784       25.512620
  H           26.114440       24.583337       26.590525
  H           26.351022       26.969816       26.631097
  H           24.575887       26.838995       26.531696
  O           31.615046       29.404904       27.663321
  C           32.115798       30.515405       27.733570
  O           33.415213       30.803229       27.441548
  C           33.651233       32.117572       27.881885
  C           32.287522       32.732350       27.840177
  O           31.434737       31.634883       28.131595
  H           34.056645       32.074288       28.899072
  H           34.358666       32.636877       27.235077
  H           32.041372       33.119880       26.848093
  H           32.155582       33.530512       28.579115
  O            5.752530        2.297552       24.510766
  C            4.577820        2.372990       24.189415
  O            3.558634        1.709199       24.803614
  C            2.421344        1.865993       23.991773
  C            2.704766        3.143150       23.265175
  O            4.119949        3.135066       23.147737
  H            2.358911        1.007239       23.313876
  H            1.508725        1.922010       24.585480
  H            2.401171        4.020574       23.842198
  H            2.235615        3.185418       22.275928
  O           17.293920        6.817172       16.981954
  C           17.162013        6.815538       18.195008
  O           18.117571        6.418189       19.081362
  C           17.496469        6.331568       20.339865
  C           16.355433        7.291634       20.214528
  O           16.017682        7.206395       18.837844
  H           17.157345        5.300122       20.488236
  H           18.179615        6.604304       21.144493
  H           16.654349        8.317762       20.444119
  H           15.497672        7.020243       20.839902
  O            8.213290       12.458698       12.494973
  C            7.180304       13.107256       12.460189
  O            5.926067       12.575711       12.491005
  C            5.033302       13.617722       12.183946
  C            5.788433       14.838374       12.607250
  O            7.140561       14.473356       12.372492
  H            4.840361       13.601647       11.105329
  H            4.089826       13.509053       12.719245
  H            5.658241       15.054106       13.670974
  H            5.522504       15.728488       12.026321
  O           37.435828       30.953634       15.357835
  C           37.887840       29.862534       15.664569
  O           38.033044       29.411316       16.942034
  C           38.805147       28.238064       16.875414
  C           38.533441       27.739148       15.490980
  O           38.326925       28.936596       14.756085
  H           39.857355       28.507410       17.021054
  H           38.509453       27.518778       17.639412
  H           37.625562       27.132107       15.443479
  H           39.368555       27.167642       15.070901
  O           17.718353       33.454405       26.511818
  C           16.682165       32.909548       26.855835
  O           15.754795       33.457040       27.690603
  C           14.853099       32.432118       28.027618
  C           14.960537       31.498293       26.863218
  O           16.311528       31.653813       26.454269
  H           15.188135       31.970117       28.963142
  H           13.840719       32.814832       28.158452
  H           14.304092       31.790922       26.039539
  H           14.755901       30.455734       27.130979
  O           28.314034        2.490657       32.420710
  C           28.802672        3.332086       33.157005
  O           28.520527        4.664356       33.111719
  C           29.458214        5.308656       33.937987
  C           29.841199        4.234581       34.907051
  O           29.721055        3.050098       34.132995
  H           30.302978        5.629592       33.318088
  H           29.026036        6.177944       34.434032
  H           29.150429        4.178125       35.752420
  H           30.863030        4.345663       35.286556
  O            4.760416       18.160201       22.029582
  C            3.727314       17.518380       22.127892
  O            2.690674       17.571947       21.245221
  C            1.613491       16.890250       21.838573
  C            2.294877       15.941583       22.774063
  O            3.461116       16.655400       23.157408
  H            0.991000       17.620553       22.367783
  H            1.006856       16.373132       21.094877
  H            2.592975       15.015506       22.275545
  H            1.686779       15.695899       23.651762
  O            2.311784       28.499787       35.369990
  C            3.057377       29.098955       34.612369
  O            3.670765       28.548718       33.527199
  C            4.620047       29.483294       33.077167
  C            4.060435       30.784607       33.559681
  O            3.392432       30.418788       34.758242
  H            5.584451       29.248006       33.541351
  H            4.727345       29.456289       31.992613
  H            3.331871       31.203371       32.860517
  H            4.833878       31.533811       33.762119
  O           27.877756       18.549496        5.950063
  C           28.817046       19.326163        6.008578
  O           28.851321       20.449594        6.778855
  C           29.980861       21.185007        6.378346
  C           30.884571       20.130011        5.821847
  O           29.973787       19.178877        5.290417
  H           29.670081       21.909699        5.617335
  H           30.432421       21.715865        7.216668
  H           31.485033       19.650889        6.599592
  H           31.550006       20.507347        5.037428
  O           20.600014        1.342445       18.756692
  C           21.491718        2.174373       18.715942
  O           22.036354        2.785640       19.805127
  C           22.838367        3.836201       19.325338
  C           23.202082        3.375203       17.948896
  O           22.065144        2.620895       17.555209
  H           22.237019        4.752218       19.311461
  H           23.715143        3.991630       19.954311
  H           24.078292        2.721564       17.952323
  H           23.375899        4.203205       17.252691
  O            5.383847       30.714852       19.645951
  C            5.318910       31.368153       20.674485
  O            6.358089       31.577507       21.530567
  C            5.819003       32.155331       22.693583
  C            4.576978       32.820693       22.189531
  O            4.176015       31.977309       21.119703
  H            5.600365       31.354276       23.408711
  H            6.511832       32.863599       23.148384
  H            4.776780       33.821338       21.797373
  H            3.788269       32.884154       22.947430
  O            7.458059       14.680833       10.205438
  C            7.932832       15.798829       10.088923
  O            8.552553       16.268607        8.970060
  C            9.165592       17.483926        9.322598
  C            8.333722       17.954428       10.474128
  O            7.917660       16.740796       11.082889
  H           10.201223       17.277126        9.615175
  H            9.161127       18.191425        8.493186
  H            7.450369       18.507530       10.144332
  H            8.896529       18.569648       11.184939
  O           20.669195       14.116563        9.243946
  C           20.646221       13.643190       10.368353
  O           21.550436       13.921820       11.348843
  C           21.322838       13.001908       12.387622
  C           19.881691       12.642908       12.204280
  O           19.703981       12.747649       10.799272
  H           21.987066       12.142748       12.240840
  H           21.517622       13.443626       13.365090
  H           19.214770       13.352739       12.700624
  H           19.646322       11.629730       12.548623
  O           10.259998        6.869165        4.248153
  C           11.470638        6.930422        4.108517
  O           12.278742        5.865335        3.845536
  C           13.603531        6.308650        4.005235
  C           13.496438        7.778166        3.743601
  O           12.191939        8.090128        4.210037
  H           13.919927        6.091251        5.031652
  H           14.279666        5.812965        3.308357
  H           13.557750        8.011516        2.677398
  H           14.249346        8.364306        4.282183
  O           28.139282       39.596765       35.972274
  C           27.148181       39.094037       36.476142
  O           27.167257       38.177383       37.484101
  C           25.859960       37.673334       37.602459
  C           25.022598       38.790573       37.063941
  O           25.866865       39.377330       36.084385
  H           25.782643       36.765355       36.993776
  H           25.613924       37.434100       38.637222
  H           24.792795       39.537508       37.828322
  H           24.087698       38.443692       36.609919
  O            4.569406       17.850154       35.240333
  C            3.700916       18.590747       35.671780
  O            2.471901       18.184221       36.097054
  C            1.697273       19.344057       36.275470
  C            2.728710       20.395657       36.539429
  O            3.840704       19.948975       35.777494
  H            1.138498       19.532576       35.351819
  H            0.996425       19.235491       37.103434
  H            3.013914       20.436339       37.593945
  H            2.414382       21.393833       36.214863
  O            1.502726       28.211214       29.800595
  C            1.965019       27.276162       30.433733
  O            1.346011       26.075593       30.612792
  C            2.080251       25.379172       31.589004
  C            3.447752       25.973899       31.463934
  O            3.178288       27.310767       31.067990
  H            1.629057       25.576808       32.567913
  H            2.078089       24.305011       31.402794
  H            4.039066       25.485077       30.685217
  H            4.009544       25.955702       32.404444
  O           29.456509       21.552438       26.795407
  C           30.281138       22.126342       27.487882
  O           30.551365       23.460672       27.431830
  C           31.713577       23.674302       28.193884
  C           31.691202       22.533203       29.161765
  O           31.064972       21.497824       28.418510
  H           32.579442       23.633636       27.523419
  H           31.692758       24.642079       28.695356
  H           31.084565       22.754120       30.043914
  H           32.692429       22.225921       29.483667
  O           34.663469        7.570025       20.953610
  C           35.087334        8.122098       21.955834
  O           35.877258        7.530508       22.895324
  C           35.936470        8.409459       23.991244
  C           35.678825        9.742825       23.362632
  O           34.813776        9.423582       22.282644
  H           35.153034        8.127573       24.703752
  H           36.905941        8.367152       24.488070
  H           36.592066       10.193342       22.965107
  H           35.197955       10.451792       24.045736
  O           35.861176        6.382295       35.437623
  C           35.249721        7.240471       34.822354
  O           33.981352        7.100908       34.344482
  C           33.741475        8.196790       33.496779
  C           34.674509        9.239055       34.028316
  O           35.765634        8.471141       34.514478
  H           33.989143        7.901572       32.470910
  H           32.699661        8.515355       33.537261
  H           34.235901        9.798546       34.858734
  H           35.010683        9.943913       33.259771
  O           10.618121        9.495017        5.108504
  C            9.407752        9.398192        4.987955
  O            8.774885        8.492038        4.191108
  C            7.420694        8.867295        4.141640
  C            7.235653        9.615257        5.424493
  O            8.510271       10.204545        5.635891
  H            7.270105        9.505054        3.263297
  H            6.765574        7.998740        4.071423
  H            7.009619        8.948147        6.260480
  H            6.459618       10.386191        5.361799
  O           12.938263       33.311097       36.089382
  C           14.097972       33.325841       35.710228
  O           15.127960       32.684907       36.330652
  C           16.314809       33.148453       35.735997
  C           15.861447       33.571081       34.373922
  O           14.529292       34.006450       34.602873
  H           16.692819       33.989748       36.327800
  H           17.074861       32.367981       35.694936
  H           15.846067       32.736309       33.668289
  H           16.466190       34.382956       33.954822
  O           16.308134        1.011810       25.473975
  C           17.286082        1.600219       25.905591
  O           17.259727        2.833154       26.485052
  C           18.595632        3.252639       26.613465
  C           19.346686        1.959429       26.667548
  O           18.560139        1.100494       25.855037
  H           18.857499        3.848756       25.732005
  H           18.743225        3.854144       27.510632
  H           19.388569        1.550320       27.680403
  H           20.365119        2.039600       26.271483
  O           27.847610       13.121771       27.847746
  C           28.036067       14.324622       27.766923
  O           27.051573       15.262767       27.681727
  C           27.675058       16.480719       27.357753
  C           29.061462       16.296699       27.890123
  O           29.277845       14.901412       27.738623
  H           27.660404       16.598030       26.268293
  H           27.164974       17.327668       27.817092
  H           29.132401       16.554175       28.950158
  H           29.812799       16.866610       27.332276
  O           39.795990       13.546551        3.533835
  C           38.722650       12.993881        3.356638
  O           38.527252       11.645692        3.385039
  C           37.230374       11.410633        2.895185
  C           36.522511       12.693711        3.198567
  O           37.556630       13.660903        3.090224
  H           37.296805       11.217147        1.818594
  H           36.764631       10.555661        3.385702
  H           36.123618       12.712584        4.216176
  H           35.713541       12.912916        2.492864
  O           30.489334       30.658819        4.492444
  C           30.985379       29.871086        5.281315
  O           31.788815       30.217381        6.325906
  C           32.342586       29.026233        6.827507
  C           31.331622       27.996568        6.431097
  O           30.809521       28.514493        5.216286
  H           33.312279       28.864548        6.343302
  H           32.483704       29.072563        7.907525
  H           30.520913       27.914438        7.159798
  H           31.770809       27.005611        6.271038
  O           16.598753        6.995965       14.398698
  C           17.411032        7.890453       14.228419
  O           17.184317        9.208139       14.490914
  C           18.257665        9.925945       13.934336
  C           19.362737        8.916935       13.923652
  O           18.672161        7.690780       13.733257
  H           17.975024       10.243437       12.924281
  H           18.505663       10.804216       14.530689
  H           19.895313        8.880307       14.877603
  H           20.085038        9.082461       13.116570
  O           31.787829       14.571691       19.036688
  C           31.027275       15.461152       19.382113
  O           31.381824       16.765566       19.553579
  C           30.299230       17.403421       20.184635
  C           29.132141       16.560956       19.775300
  O           29.700559       15.264801       19.659186
  H           30.467985       17.381836       21.267204
  H           30.196791       18.438358       19.857659
  H           28.729285       16.860507       18.804230
  H           28.323306       16.562903       20.514409
  O           24.549447       15.395242       36.971968
  C           25.574624       14.738844       36.887981
  O           25.622878       13.382105       36.771656
  C           26.964968       13.004151       36.953441
  C           27.714963       14.232635       36.543887
  O           26.831574       15.282009       36.911363
  H           27.115260       12.758675       38.010822
  H           27.224654       12.138763       36.343386
  H           27.882762       14.271162       35.464369
  H           28.675890       14.338689       37.059514
  O           10.376635       14.462099       15.799830
  C            9.854177       14.681766       16.880424
  O            9.960637       13.876651       17.974524
  C            9.027578       14.343302       18.917254
  C            8.872311       15.784719       18.546297
  O            9.070636       15.774511       17.140181
  H            8.096569       13.779154       18.791316
  H            9.389571       14.215808       19.937649
  H            9.638162       16.413049       19.008545
  H            7.883103       16.185692       18.793661
  O           40.106797       20.181485       20.423906
  C           39.890002       19.040914       20.048410
  O           40.300030       18.522508       18.856885
  C           39.646547       17.287098       18.702543
  C           39.372831       16.876717       20.115366
  O           39.186471       18.119251       20.777164
  H           38.725668       17.451562       18.131724
  H           40.271345       16.565272       18.176145
  H           40.223849       16.358697       20.565281
  H           38.479680       16.249625       20.213031
  O           39.393503       30.104683       26.346888
  C           39.249443       28.922183       26.611164
  O           38.089114       28.225291       26.454386
  C           38.267124       26.986368       27.095075
  C           39.750914       26.797757       27.048243
  O           40.243087       28.127957       27.118486
  H           37.891006       27.070005       28.120960
  H           37.732519       26.187663       26.580520
  H           40.078605       26.346905       26.107843
  H           40.132543       26.200393       27.883716
  O           37.128581       14.048049       23.688106
  C           36.457150       14.185007       24.697721
  O           36.759401       15.027319       25.725220
  C           35.889496       14.709449       26.783201
  C           34.712091       14.112911       26.078036
  O           35.300785       13.493769       24.943706
  H           36.390631       13.988156       27.438564
  H           35.620511       15.593636       27.361440
  H           34.005632       14.875526       25.739902
  H           34.177970       13.374948       26.686827
  O           24.015840       27.773213        2.961693
  C           23.554148       27.579834        4.074503
  O           22.523889       26.732847        4.353390
  C           22.138668       26.982145        5.682508
  C           23.389337       27.531059        6.293998
  O           24.006339       28.204169        5.206417
  H           21.323582       27.714594        5.675070
  H           21.800038       26.072986        6.179759
  H           24.056213       26.739853        6.646518
  H           23.192987       28.226918        7.117239
  O           34.724991        4.641829       23.753676
  C           33.734479        5.222864       24.166212
  O           32.604009        4.610233       24.617120
  C           31.626819        5.611001       24.760868
  C           32.444326        6.845592       24.977357
  O           33.618392        6.586293       24.221757
  H           31.040510        5.657645       23.836225
  H           30.960515        5.404329       25.598619
  H           32.719378        6.977776       26.027059
  H           31.948351        7.754895       24.620040
  O           20.832196       12.909419        3.873265
  C           19.689628       13.145357        4.230716
  O           19.104292       14.375525        4.204896
  C           17.897530       14.268603        4.918614
  C           17.558077       12.817499        4.782714
  O           18.833805       12.196526        4.723452
  H           18.084359       14.555988        5.959481
  H           17.125190       14.914638        4.500726
  H           17.017024       12.606786        3.856506
  H           16.980344       12.432362        5.630296
  O           36.189521       35.190764       15.508743
  C           37.052227       36.035223       15.686301
  O           37.375491       36.575654       16.894620
  C           38.223593       37.667829       16.639715
  C           38.841428       37.309471       15.324702
  O           37.813979       36.569692       14.681524
  H           37.611239       38.574524       16.577848
  H           38.968202       37.790297       17.426519
  H           39.719171       36.668853       15.443765
  H           39.116631       38.186540       14.728453
  O           40.300004       16.873752       12.561423
  C           39.477828       16.091899       13.010458
  O           39.268120       14.829251       12.543187
  C           38.090781       14.359056       13.151373
  C           38.030051       15.154152       14.417680
  O           38.635763       16.384809       14.049992
  H           37.247563       14.573559       12.485137
  H           38.136495       13.286085       13.338840
  H           38.615013       14.695833       15.219406
  H           37.005891       15.318337       14.770722
  O           31.354253        2.330254       30.467066
  C           30.269674        2.795793       30.157452
  O           30.080008        4.027015       29.605439
  C           28.696755        4.277970       29.632497
  C           28.108899        2.901806       29.632556
  O           29.080156        2.140983       30.335698
  H           28.462962        4.829786       30.549961
  H           28.377887        4.863581       28.770011
  H           28.005597        2.498778       28.621666
  H           27.138546        2.851417       30.138890
  O           18.991295        6.737614       27.522395
  C           18.451833        7.831903       27.502103
  O           18.859268        8.914086       28.222851
  C           17.845591        9.882430       28.113910
  C           17.188385        9.531542       26.816082
  O           17.343105        8.121374       26.752151
  H           17.166915        9.770568       28.967014
  H           18.254352       10.893074       28.110240
  H           17.698233        9.983984       25.961476
  H           16.127864        9.805219       26.786148
  O            3.172492       40.200118        6.645803
  C            3.941155       39.865791        7.532528
  O            5.227092       40.300000        7.652651
  C            5.836621       39.503604        8.638210
  C            4.676393       39.062908        9.474307
  O            3.615743       38.988996        8.532947
  H            6.335762       38.662605        8.143761
  H            6.570084       40.068424        9.213979
  H            4.419800       39.798015       10.241625
  H            4.838041       38.089619        9.950836
  O           37.787680       35.585167       30.236164
  C           37.197255       35.023054       31.144089
  O           36.130482       35.539558       31.816264
  C           35.906896       34.708202       32.928000
  C           36.475796       33.397550       32.483093
  O           37.537972       33.786743       31.624658
  H           36.445878       35.125354       33.786127
  H           34.846221       34.637615       33.169842
  H           35.753927       32.809031       31.910774
  H           36.853416       32.791267       33.313951
  O            6.009191       11.940089        7.870800
  C            5.186895       11.066656        7.647544
  O            3.995057       11.262491        7.016854
  C            3.248352       10.082165        7.179218
  C            4.307452        9.041291        7.364386
  O            5.346775        9.757226        8.015419
  H            2.614701       10.192731        8.066439
  H            2.619535        9.882170        6.311410
  H            4.681620        8.661126        6.410199
  H            3.975214        8.198100        7.980134
  O           11.739011       24.168268       36.280391
  C           12.430434       23.791985       35.348057
  O           13.769431       24.016030       35.231906
  C           14.132919       23.649088       33.924111
  C           13.087361       22.642984       33.558101
  O           11.946675       23.095142       34.272935
  H           14.090825       24.541714       33.289804
  H           15.139090       23.230865       33.889316
  H           13.346096       21.637775       33.901045
  H           12.881559       22.612279       32.482367
  O           31.615536       19.126355       22.099105
  C           32.338890       19.211419       23.078096
  O           32.771932       20.381089       23.626682
  C           33.765348       20.049030       24.564745
  C           33.404529       18.648708       24.949852
  O           32.829364       18.129624       23.759752
  H           34.741464       20.105530       24.069865
  H           33.755267       20.727888       25.417710
  H           32.657045       18.621149       25.747039
  H           34.271993       18.051315       25.251727
  O           16.757369       21.843343       34.975109
  C           16.103791       22.381804       35.853627
  O           15.840008       23.716940       35.920191
  C           15.284586       23.960699       37.188728
  C           14.683239       22.638392       37.548294
  O           15.549764       21.711053       36.911287
  H           16.092454       24.249064       37.870707
  H           14.541205       24.757422       37.155306
  H           13.675611       22.520583       37.141099
  H           14.655516       22.461062       38.629166
  O           23.829206        6.919467       39.157251
  C           22.723127        6.793311       38.657677
  O           22.252158        7.530541       37.613033
  C           20.877349        7.255606       37.506205
  C           20.763015        5.891189       38.110104
  O           21.789072        5.890791       39.091841
  H           20.327753        8.011020       38.079086
  H           20.542763        7.277821       36.468873
  H           20.967060        5.101149       37.382641
  H           19.786516        5.708677       38.572317
  O           21.059372       29.530066       18.631817
  C           22.237512       29.386695       18.348392
  O           23.145984       30.398511       18.261747
  C           24.305175       29.857627       17.677950
  C           24.212031       28.407442       18.035285
  O           22.811214       28.176154       18.063865
  H           24.257095       30.022881       16.595693
  H           25.208406       30.323361       18.072622
  H           24.626547       28.200501       19.025412
  H           24.696176       27.754195       17.300866
  O           33.808066        5.418014       21.739064
  C           32.713181        5.946173       21.633352
  O           32.507852        7.276341       21.421001
  C           31.134418        7.512497       21.608111
  C           30.523620        6.180066       21.306524
  O           31.527319        5.267552       21.726650
  H           30.974180        7.817211       22.648482
  H           30.767375        8.295261       20.943988
  H           30.343826        6.042772       20.237027
  H           29.589687        6.004565       21.851931
  O            4.802538       26.887960       25.526959
  C            5.870613       27.456439       25.369011
  O            6.011398       28.753755       24.976899
  C            7.371770       28.944233       24.676553
  C            8.046354       27.904284       25.514909
  O            7.087895       26.857224       25.555193
  H            7.516902       28.771841       23.604117
  H            7.700635       29.953286       24.925870
  H            8.232763       28.254661       26.533481
  H            8.987588       27.549450       25.080547
  O           19.553554        5.708323        7.985936
  C           19.287468        6.791509        8.480716
  O           19.805671        7.261581        9.649946
  C           19.070377        8.410962        9.989604
  C           18.573349        8.892137        8.662640
  O           18.412268        7.687881        7.927506
  H           18.253194        8.114455       10.656834
  H           19.692771        9.152161       10.491350
  H           19.306033        9.523822        8.153573
  H           17.622402        9.431890        8.732395
  O           20.940347       32.471418       27.487927
  C           21.931773       32.375349       26.783125
  O           21.995181       31.666194       25.621368
  C           23.351243       31.602987       25.255034
  C           23.928789       32.820447       25.905905
  O           23.133420       32.964624       27.073467
  H           23.775530       30.675999       25.656996
  H           23.475659       31.614925       24.172039
  H           23.813237       33.712648       25.284918
  H           24.985464       32.703085       26.170788
  O            8.593087       11.408402       35.522546
  C            7.805224       12.310026       35.757590
  O            7.964074       13.604841       35.364116
  C            6.985072       14.358619       36.035288
  C            5.913485       13.348981       36.303116
  O            6.645999       12.143578       36.467515
  H            7.424514       14.753062       36.958438
  H            6.628104       15.188047       35.424450
  H            5.232138       13.237864       35.455520
  H            5.330929       13.572504       37.203764
  O           14.450029       35.957738       19.427103
  C           13.814309       35.919649       20.467924
  O           13.743488       34.841238       21.297752
  C           12.731082       35.112935       22.234936
  C           12.701788       36.608728       22.268804
  O           13.067032       36.964185       20.943343
  H           11.792148       34.687194       21.863388
  H           12.960000       34.681853       23.209751
  H           13.440105       37.018826       22.962856
  H           11.713776       37.011468       22.518070
  O           28.675928       32.071025       31.134448
  C           28.906599       30.898254       30.888891
  O           27.960614       29.922189       30.793965
  C           28.643987       28.694117       30.749909
  C           29.979076       29.076125       30.192229
  O           30.163867       30.395260       30.684504
  H           28.716770       28.301692       31.770500
  H           28.126115       27.968634       30.122228
  H           29.976066       29.101929       29.099377
  H           30.788113       28.420283       30.532569
  O           35.395509       26.442535       21.851069
  C           35.655712       25.358480       22.347073
  O           34.765624       24.337993       22.498563
  C           35.380844       23.378365       23.321799
  C           36.838241       23.623391       23.086525
  O           36.889573       25.020169       22.835573
  H           35.088735       23.574282       24.359676
  H           35.082835       22.365574       23.049870
  H           37.207965       23.090516       22.206554
  H           37.460387       23.363280       23.950109
  O           27.773525        4.335300       22.879520
  C           26.782398        3.623799       22.861296
  O           26.762851        2.307135       23.211461
  C           25.511840        1.798853       22.819388
  C           24.641143        3.015912       22.826637
  O           25.542357        4.053961       22.470452
  H           25.612615        1.365928       21.817729
  H           25.156174        1.032112       23.507945
  H           24.233851        3.224181       23.819481
  H           23.817111        2.956370       22.106966
  O           15.191421       11.056068        6.666440
  C           15.041238        9.866350        6.892084
  O           16.038965        9.009756        7.248997
  C           15.508290        7.709938        7.171815
  C           14.043113        7.936132        7.375514
  O           13.837025        9.220018        6.804756
  H           15.731934        7.303138        6.179143
  H           15.935225        7.056020        7.932484
  H           13.775872        7.971252        8.434924
  H           13.420993        7.186447        6.874078
  O           10.794188        1.466797       21.685159
  C           10.473245        2.457860       22.320525
  O           10.809734        3.736449       21.991001
  C           10.468271        4.544660       23.089772
  C            9.375026        3.764439       23.749673
  O            9.732241        2.418466       23.471550
  H           11.350794        4.647672       23.731210
  H           10.136947        5.533838       22.773146
  H            8.397246        3.971281       23.306771
  H            9.321370        3.934014       24.830814
  O            2.859328        6.059018       36.857033
  C            2.779418        7.051559       37.562282
  O            3.724390        8.030219       37.638783
  C            3.376436        8.849650       38.727159
  C            1.896686        8.652847       38.832070
  O            1.721760        7.314170       38.391676
  H            3.907599        8.489377       39.615398
  H            3.643111        9.891256       38.547043
  H            1.344769        9.321021       38.165789
  H            1.520467        8.775311       39.853814
  O            7.745062       26.591820       17.546626
  C            7.175255       25.513497       17.508671
  O            7.060546       24.656240       18.561549
  C            6.565349       23.444094       18.049120
  C            5.831869       23.877853       16.818974
  O            6.576543       25.006840       16.386021
  H            7.415844       22.792858       17.817928
  H            5.912862       22.942533       18.764100
  H            4.808020       24.190950       17.039664
  H            5.810612       23.107656       16.039971
  O           25.435184       21.907007       28.063301
  C           25.878062       22.051227       26.935489
  O           27.157976       21.772563       26.560299
  C           27.329297       22.301586       25.268834
  C           25.935098       22.310234       24.725203
  O           25.143341       22.529685       25.883461
  H           27.745789       23.311036       25.360727
  H           28.002727       21.688357       24.669716
  H           25.659952       21.348786       24.283715
  H           25.768608       23.103433       23.987899
  O           10.839438       28.509448       30.687566
  C           10.392980       28.981475       31.720409
  O            9.088595       28.911622       32.108095
  C            8.942483       29.776041       33.207427
  C           10.323990       29.821521       33.780813
  O           11.149037       29.664108       32.635772
  H            8.613619       30.753791       32.837625
  H            8.210865       29.397490       33.921523
  H           10.510689       28.993570       34.469754
  H           10.545122       30.766758       34.288875
  O           31.009530       15.434746       29.201736
  C           30.980642       14.215548       29.242011
  O           29.844865       13.465537       29.305995
  C           30.242137       12.145859       29.584789
  C           31.637356       12.097541       29.045876
  O           32.099688       13.426097       29.240266
  H           30.210404       11.996763       30.669991
  H           29.587619       11.419159       29.103112
  H           31.657706       11.867047       27.977485
  H           32.276815       11.384583       29.578120
  O           12.689869       37.799424       10.391286
  C           13.884703       37.921975       10.606353
  O           14.421164       38.636158       11.635309
  C           15.801975       38.733709       11.388437
  C           16.074945       37.528692       10.544150
  O           14.860998       37.361376        9.826559
  H           15.992229       39.669525       10.850895
  H           16.376921       38.728263       12.314670
  H           16.256460       36.635907       11.148292
  H           16.914438       37.671046        9.854595
  O           32.664811       24.166563       21.868268
  C           32.018751       23.711930       22.798222
  O           31.228480       24.447023       23.629913
  C           30.866949       23.606920       24.697913
  C           30.964267       22.241003       24.094424
  O           32.009226       22.386834       23.143952
  H           31.585451       23.753622       25.512244
  H           29.862916       23.827937       25.060636
  H           30.046913       21.955608       23.572876
  H           31.214864       21.466454       24.827755
  O           16.582648       13.146222       20.102560
  C           16.848460       14.334520       20.181244
  O           18.059435       14.882748       19.881936
  C           18.028479       16.213450       20.335120
  C           16.568069       16.539091       20.311421
  O           15.958620       15.288731       20.597375
  H           18.444639       16.243786       21.348427
  H           18.609225       16.871543       19.688478
  H           16.238293       16.877905       19.325798
  H           16.284567       17.286908       21.060351
  O           37.706562       29.797779       36.119422
  C           37.376661       30.970978       36.179994
  O           36.242755       31.430753       36.779548
  C           36.109468       32.783126       36.418409
  C           37.520486       33.191977       36.133334
  O           38.104026       31.996346       35.636799
  H           35.471803       32.842703       35.529176
  H           35.662899       33.370907       37.220650
  H           38.051222       33.496808       37.039092
  H           37.591409       33.993739       35.389931
  O            8.928584       32.286326       20.098783
  C            9.487998       31.739816       21.035417
  O           10.747469       31.221471       20.994796
  C           10.919841       30.474508       22.173539
  C            9.960421       31.122785       23.121511
  O            8.914752       31.560437       22.266154
  H           10.656407       29.431613       21.964082
  H           11.948698       30.520214       22.531119
  H           10.398603       31.991369       23.620068
  H            9.575326       30.431540       23.879391
  O            1.679873       27.401338       37.886243
  C            2.882029       27.397272       38.095298
  O            3.630221       26.279783       38.314447
  C            4.893499       26.713803       38.753599
  C            4.998353       28.084559       38.162469
  O            3.649958       28.529854       38.150469
  H            4.891351       26.732785       39.849288
  H            5.688062       26.052511       38.407387
  H            5.374222       28.062114       37.136205
  H            5.622668       28.760213       38.757634
  O           30.796712       14.210389       25.609940
  C           29.790288       14.613229       25.049823
  O           29.779745       15.360527       23.910510
  C           28.462527       15.820531       23.736061
  C           27.651889       14.789487       24.456625
  O           28.519547       14.376166       25.502061
  H           28.378191       16.811548       24.196140
  H           28.198115       15.890783       22.680764
  H           27.424272       13.928564       23.822589
  H           26.717599       15.189572       24.865936
  O           30.290605        7.552275        2.203619
  C           29.263616        8.211087        2.190967
  O           29.206433        9.560123        2.008122
  C           27.891127        9.957317        2.306966
  C           27.100234        8.714658        2.042986
  O           28.014685        7.679467        2.372773
  H           27.851487       10.259389        3.359620
  H           27.571567       10.791248        1.681714
  H           26.821634        8.620486        0.990126
  H           26.197553        8.643258        2.659888
  O            2.429511       12.188416       20.553628
  C            2.670264       13.295741       20.101114
  O            1.731743       14.168328       19.638112
  C            2.423697       15.204113       18.985846
  C            3.761245       15.184634       19.656655
  O            3.932689       13.813660       19.984738
  H            2.489764       14.958598       17.919892
  H            1.916459       16.161962       19.103039
  H            3.768062       15.773819       20.577423
  H            4.571507       15.529765       19.004842
  C           16.261124        6.164981       35.499359
  O           16.909489        5.395583       36.519873
  C           16.073635        4.973385       37.497420
  O           14.874832        5.201509       37.564720
  O           16.799880        4.256857       38.396117
  C           16.036238        3.757314       39.482306
  H           15.821596        7.075031       35.921170
  H           17.012930        6.454588       34.759416
  H           15.495834        5.571148       34.996175
  H           16.710935        3.204555       40.149870
  H           15.595283        4.584546       40.056889
  H           15.262852        3.075151       39.126879
  C           22.559191       26.391033       24.322497
  O           23.286023       27.565945       23.941583
  C           22.842790       28.132690       22.794916
  O           21.923101       27.724284       22.101319
  O           23.602558       29.231901       22.543943
  C           23.240885       29.920100       21.357320
  H           22.652227       25.613242       23.557196
  H           22.986490       26.011627       25.255271
  H           21.508176       26.627677       24.498190
  H           23.913819       30.780433       21.241612
  H           23.369266       29.270202       20.479795
  H           22.215688       30.286797       21.422923
  C           25.612354       24.884926       34.678491
  O           26.596032       25.911960       34.501352
  C           26.129895       27.007164       33.856570
  O           24.993740       27.161553       33.433466
  O           27.146672       27.903969       33.754562
  C           26.787934       29.104158       33.088715
  H           25.252378       24.522528       33.709788
  H           26.080665       24.050125       35.208012
  H           24.778741       25.249148       35.281758
  H           27.673270       29.753163       33.051657
  H           26.479156       28.894372       32.054526
  H           25.998091       29.624070       33.632441
  C           23.863831       36.047773        2.950613
  O           23.270012       37.214561        3.533524
  C           22.233506       37.712743        2.819401
  O           21.804483       37.262236        1.767411
  O           21.755967       38.806043        3.471438
  C           20.661578       39.430021        2.819161
  H           24.273563       36.275362        1.960854
  H           24.683165       35.721145        3.597610
  H           23.135965       35.237090        2.883493
  H           20.357413       40.300013        3.416654
  H           20.959893       39.790877        1.824329
  H           19.815852       38.744960        2.746786
  C           36.416607       11.934586       31.463060
  O           37.288411       10.860315       31.089296
  C           37.593700       10.026129       32.110781
  O           37.203298       10.130994       33.264163
  O           38.416062        9.054382       31.633362
  C           38.817105        8.110194       32.613246
  H           36.885002       12.565725       32.225667
  H           36.227400       12.546222       30.576098
  H           35.461304       11.548532       31.823419
  H           39.480103        7.378222       32.132567
  H           39.383960        8.603791       33.415704
  H           37.951299        7.583181       33.016281
  C           32.842147       35.696104       25.562086
  O           33.894712       35.097590       26.328693
  C           33.684661       35.136294       27.665436
  O           32.716375       35.628341       28.225803
  O           34.741164       34.538896       28.278150
  C           34.646087       34.517486       29.693424
  H           32.737536       36.757474       25.810785
  H           33.100544       35.612787       24.502421
  H           31.898850       35.172226       25.727141
  H           35.544376       34.025115       30.089718
  H           34.617225       35.541054       30.093891
  H           33.769969       33.950760       30.011291
  C           19.969414       17.742320        1.769159
  O           19.432150       17.712162        3.097405
  C           18.188551       18.238132        3.193939
  O           17.538483       18.716611        2.276241
  O           17.789749       18.148536        4.490638
  C           16.493805       18.673863        4.729508
  H           20.059725       18.773442        1.411483
  H           20.967716       17.295781        1.793541
  H           19.348528       17.156870        1.088535
  H           16.270629       18.562077        5.799133
  H           16.461277       19.745957        4.487728
  H           15.744751       18.123627        4.158579
  C           11.756773       17.622266       22.124072
  O           10.857310       18.315954       22.997892
  C           10.105177       19.252394       22.373491
  O           10.149325       19.532630       21.184702
  O            9.296203       19.832896       23.299276
  C            8.453125       20.843945       22.770597
  H           12.471930       18.318205       21.672940
  H           12.313072       16.890111       22.716594
  H           11.205459       17.087734       21.348295
  H            7.850421       21.252150       23.593103
  H            9.051685       21.664970       22.350427
  H            7.780237       20.429152       22.018953
  C           30.394335        6.349121       37.739799
  O           31.171731        7.355716       38.400270
  C           30.483717        8.492342       38.659534
  O           29.314322        8.704257       38.374390
  O           31.320883        9.361120       39.286334
  C           30.718883       10.603838       39.611523
  H           30.044341        6.707368       36.765909
  H           31.032158        5.475225       37.578276
  H           29.548541        6.046319       38.359834
  H           31.473922       11.232028       40.103147
  H           30.388667       11.122970       38.700282
  H           29.885394       10.458710       40.300024
  C           25.725583       24.729413       20.223143
  O           26.795463       23.884067       19.782066
  C           26.870771       22.708277       20.448660
  O           26.133612       22.348445       21.354649
  O           27.913394       21.998835       19.940595
  C           28.105398       20.737743       20.561304
  H           25.854250       24.998653       21.276830
  H           25.745631       25.646205       19.626745
  H           24.760864       24.242095       20.070377
  H           28.969203       20.251186       20.088543
  H           28.331559       20.863897       21.629871
  H           27.229267       20.103177       20.421584
  C           30.407171       34.386021        5.299140
  O           29.283242       35.113144        4.787403
  C           29.279150       36.422379        5.131475
  O           30.118495       36.986735        5.817553
  O           28.175340       37.000347        4.587364
  C           28.048994       38.382799        4.879536
  H           30.411396       34.400342        6.394164
  H           30.322787       33.347213        4.966941
  H           31.341159       34.795583        4.910006
  H           27.129096       38.750519        4.405227
  H           27.956932       38.541375        5.963639
  H           28.895268       38.939962        4.475568
  C           39.876475        5.222345       26.352065
  O           40.296033        4.184365       25.457431
  C           39.834146        4.334773       24.193889
  O           39.117389        5.240721       23.794869
  O           40.299944        3.299250       23.446075
  C           39.880483        3.336116       22.091382
  H           38.785031        5.239704       26.440099
  H           40.300045        5.015339       27.339150
  H           40.246316        6.193160       26.017049
  H           40.299813        2.459779       21.578941
  H           38.784743        3.274342       22.024756
  H           40.249799        4.236658       21.599008
  C           18.487589       20.602278       36.894061
  O           18.292759       22.012950       37.054829
  C           18.381201       22.432100       38.338960
  O           18.594681       21.723975       39.311937
  O           18.184448       23.777212       38.360451
  C           18.247540       24.345201       39.658876
  H           17.720470       20.041117       37.438052
  H           18.401384       20.363940       35.829935
  H           19.483600       20.309530       37.231344
  H           18.069214       25.425288       39.569362
  H           17.461397       23.925080       40.302597
  H           19.233804       24.190793       40.098467
  C           36.026167       17.117574       32.765921
  O           36.504577       15.846223       32.309205
  C           37.815900       15.846484       31.973151
  O           38.569365       16.807470       32.023103
  O           38.148868       14.593592       31.563400
  C           39.506755       14.459214       31.175345
  H           36.126258       17.873812       31.980182
  H           34.965847       17.015070       33.014545
  H           36.560386       17.430458       33.664928
  H           39.670760       13.421076       30.856329
  H           39.730855       15.114585       30.321433
  H           40.169455       14.673942       32.014703
  C           21.793607       31.763671       12.015084
  O           22.705454       31.573117       13.104131
  C           23.451688       30.448558       12.999232
  O           23.393215       29.630376       12.093220
  O           24.273463       30.382601       14.080359
  C           25.111996       29.238411       14.094184
  H           21.074332       30.939468       11.963767
  H           21.243228       32.693045       12.188132
  H           22.333991       31.855946       11.071172
  H           25.725852       29.274524       15.004280
  H           24.509965       28.319033       14.128864
  H           25.774504       29.236885       13.227650
  C           24.522282        4.103280        8.036280
  O           24.419703        3.219160        9.159494
  C           23.145182        2.907868        9.492949
  O           22.137267        3.316457        8.935399
  O           23.179576        2.066846       10.560657
  C           21.897323        1.665448       11.015854
  H           24.034463        5.059972        8.250924
  H           25.582691        4.290937        7.844141
  H           24.087964        3.646639        7.145019
  H           22.033072        0.999612       11.878777
  H           21.315928        2.536939       11.349597
  H           21.365946        1.119309       10.235361
  C           14.953715       19.472485       35.137615
  O           16.285940       19.040536       35.441584
  C           16.902793       18.412452       34.413234
  O           16.420265       18.195678       33.311473
  O           18.150635       18.057797       34.820185
  C           18.906514       17.381397       33.828404
  H           14.315686       18.616695       34.892988
  H           14.544117       19.967685       36.022831
  H           14.959102       20.190043       34.315070
  H           19.887588       17.133205       34.255363
  H           18.414401       16.440549       33.542869
  H           19.057809       18.020862       32.957775
  C           11.935733       29.060090        1.574013
  O           12.719689       27.875213        1.386186
  C           14.000784       27.997546        1.806103
  O           14.502644       28.997910        2.297133
  O           14.635488       26.816505        1.580735
  C           15.998078       26.813435        1.975499
  H           12.352615       29.894927        1.000816
  H           10.923326       28.861882        1.210219
  H           11.875066       29.318663        2.632767
  H           16.419003       25.825219        1.746043
  H           16.566461       27.563249        1.406623
  H           16.087865       26.989142        3.048283
  C            8.463981       27.178858       14.751885
  O            9.343288       26.047222       14.756200
  C           10.460007       26.222389       14.011382
  O           10.743469       27.221446       13.366996
  O           11.209400       25.091302       14.098292
  C           12.414967       25.143567       13.352385
  H            8.108648       27.389064       13.737561
  H            7.599610       26.943059       15.379469
  H            8.961887       28.055832       15.169623
  H           12.939251       24.187043       13.481178
  H           12.201037       25.270170       12.281355
  H           13.058573       25.944888       13.717700
  C           20.572365       28.353068       33.940477
  O           19.257634       28.054188       34.426227
  C           18.561698       27.209437       33.629629
  O           18.957303       26.722578       32.580742
  O           17.342752       27.001271       34.194729
  C           16.506687       26.130265       33.449849
  H           20.521351       28.847236       32.964518
  H           21.052218       29.034651       34.648844
  H           21.175321       27.445445       33.875948
  H           15.550711       26.034673       33.982176
  H           16.299201       26.551100       32.455491
  H           16.958934       25.141138       33.366786
  C           32.416797       19.283279       17.737238
  O           33.293113       18.149803       17.770431
  C           33.512322       17.667165       19.016026
  O           33.045174       18.116337       20.052230
  O           34.348295       16.599616       18.916080
  C           34.663935       15.999929       20.162373
  H           32.842572       20.118415       18.303420
  H           32.300140       19.595316       16.695305
  H           31.432201       19.021238       18.128907
  H           35.345429       15.159144       19.975166
  H           35.182728       16.716571       20.815197
  H           33.763160       15.616961       20.643768
  C           28.007157       18.861685        1.403198
  O           27.757318       17.508775        1.001931
  C           28.683046       16.628224        1.449321
  O           29.664267       16.899990        2.125375
  O           28.336373       15.388959        1.010528
  C           29.235367       14.366938        1.410258
  H           28.963361       19.214049        1.002183
  H           27.209240       19.491451        0.999063
  H           27.995603       18.949741        2.491137
  H           28.873712       13.413587        1.001936
  H           30.238016       14.552167        0.998814
  H           29.269658       14.288868        2.497700
  C           34.372218        4.103661        2.596743
  O           34.736985        3.747894        3.936211
  C           35.883692        4.328607        4.360871
  O           36.589479        5.084307        3.709348
  O           36.118772        3.920231        5.636201
  C           37.303702        4.458016        6.201204
  H           35.142412        3.782455        1.887569
  H           33.438131        3.591204        2.348815
  H           34.205215        5.179283        2.515209
  H           37.406197        4.064100        7.221363
  H           38.184792        4.139438        5.625802
  H           37.245540        5.546026        6.252712
  C           13.345034       35.062518       38.888778
  O           14.686487       35.540713       38.728680
  C           14.975075       35.941344       37.468239
  O           14.212002       35.913632       36.513958
  O           16.263839       36.373852       37.445387
  C           16.696208       36.820406       36.170183
  H           13.168359       34.186312       38.256047
  H           13.209028       34.768079       39.933483
  H           12.624817       35.849587       38.657889
  H           17.744002       37.138539       36.255735
  H           16.650445       36.001124       35.438347
  H           16.100240       37.671685       35.838600
  C           18.194796       18.540789       17.301574
  O           19.574706       18.317532       17.617496
  C           20.431640       18.806680       16.690729
  O           20.120448       19.383681       15.659259
  O           21.699465       18.538918       17.102339
  C           22.701327       18.999109       16.209593
  H           17.926830       18.042373       16.363983
  H           17.586569       18.116000       18.105448
  H           17.981544       19.609450       17.238441
  H           23.681273       18.728904       16.625640
  H           22.602196       18.507091       15.231333
  H           22.654741       20.083930       16.105701
  C           23.427899       12.162832        2.519518
  O           22.849329       13.459988        2.328617
  C           22.634590       14.135626        3.481829
  O           22.879904       13.729219        4.608042
  O           22.091882       15.342889        3.171208
  C           21.811920       16.153474        4.301284
  H           22.762728       11.525698        3.111892
  H           23.565015       11.701300        1.537282
  H           24.404749       12.243079        2.999958
  H           21.372494       17.095592        3.946716
  H           21.076996       15.662947        4.955631
  H           22.728192       16.380989        4.847620
  C           10.932586       35.548319        1.643385
  O           11.161900       34.133991        1.673241
  C           10.119441       33.423481        2.164113
  O            9.062472       33.885729        2.567651
  O           10.454123       32.105996        2.137234
  C            9.440555       31.246725        2.634056
  H           10.765820       35.934823        2.654376
  H           11.823469       36.030866        1.230981
  H           10.083995       35.788007        1.000000
  H            9.809158       30.213609        2.577451
  H            9.226419       31.471839        3.688745
  H            8.537168       31.327363        2.028095
  C           29.956449        2.076150       23.210340
  O           30.911135        2.393882       22.189839
  C           32.180481        2.043166       22.503306
  O           32.542531        1.513004       23.543281
  O           32.985082        2.389141       21.463393
  C           34.353644        2.077215       21.668918
  H           30.187371        2.612354       24.136872
  H           28.967943        2.392331       22.864674
  H           29.928482        0.999976       23.390805
  H           34.915652        2.400870       20.782467
  H           34.748007        2.624152       22.537386
  H           34.488415        1.001893       21.792681
  C           10.539823        9.571310       23.963580
  O           11.299453        9.121623       22.834623
  C           11.732769        7.843807       22.943818
  O           11.536345        7.097931       23.891862
  O           12.430889        7.535194       21.818702
  C           12.947852        6.214150       21.809008
  H           11.147724        9.545751       24.874131
  H           10.234173       10.605542       23.780436
  H            9.640714        8.965328       24.089636
  H           13.497283        6.068164       20.869214
  H           13.654075        6.069903       22.639274
  H           12.138549        5.484324       21.855708
  C           38.435701       16.112949        8.310443
  O           37.865586       14.798307        8.332458
  C           38.474177       13.926650        7.494406
  O           39.416524       14.178156        6.757909
  O           37.851135       12.723596        7.608328
  C           38.394487       11.715037        6.771621
  H           38.347387       16.556486        7.313059
  H           37.882256       16.737903        9.017359
  H           39.481202       16.085279        8.622955
  H           37.821154       10.791881        6.931218
  H           38.294623       11.996207        5.713382
  H           39.437862       11.524924        7.026621
  C           28.692670       27.274091       13.035151
  O           27.823888       26.379251       13.741041
  C           28.452742       25.288121       14.237505
  O           29.641495       25.029579       14.120368
  O           27.531458       24.525107       14.883684
  C           28.065102       23.339152       15.450460
  H           29.140700       26.775738       12.169002
  H           28.096828       28.119198       12.678266
  H           29.470825       27.658536       13.697101
  H           27.245934       22.793973       15.938459
  H           28.482848       22.690872       14.666801
  H           28.819824       23.577646       16.201004
  C           27.688861       31.495521        9.195543
  O           26.598544       31.202039        8.313002
  C           25.451559       31.846743        8.631251
  O           25.294851       32.610064        9.572784
  O           24.500990       31.492845        7.725892
  C           23.239449       32.101156        7.951662
  H           27.453112       31.184467       10.218758
  H           28.564403       30.934343        8.856270
  H           27.931766       32.559354        9.168055
  H           22.545019       31.747161        7.177805
  H           22.836273       31.802165        8.929902
  H           23.317566       33.186681        7.878630
  C           34.534685       28.901046       38.401649
  O           34.172200       30.116680       39.068462
  C           33.299504       30.881118       38.370941
  O           32.836676       30.619476       37.270471
  O           33.031750       31.994750       39.103493
  C           32.126015       32.889018       38.477053
  H           35.030507       29.115167       37.448962
  H           35.234677       28.355487       39.041163
  H           33.656648       28.272895       38.240474
  H           31.983195       33.752606       39.140543
  H           32.541335       33.257110       37.527886
  H           31.159584       32.408788       38.318339
  C            2.820506        8.307715       34.557264
  O            2.945965        9.528863       35.296763
  C            2.414578       10.603424       34.667917
  O            1.875423       10.599027       33.571107
  O            2.590499       11.690905       35.464745
  C            2.077772       12.893780       34.914560
  H            3.349906        8.378060       33.601185
  H            3.272879        7.503648       35.145002
  H            1.769620        8.062614       34.392759
  H            2.275358       13.707265       35.625616
  H            2.590090       13.136497       33.972477
  H            1.000211       12.818450       34.762941
  C           19.010088        7.614818        5.662683
  O           20.049238        8.303529        6.369540
  C           20.250375        9.572101        5.942027
  O           19.644046       10.129817        5.039243
  O           21.249110       10.117069        6.686364
  C           21.563602       11.454375        6.332516
  H           19.256583        7.529076        4.599110
  H           18.921979        6.607430        6.079822
  H           18.053171        8.124009        5.791274
  H           22.380841       11.797274        6.981314
  H           21.914055       11.506027        5.291644
  H           20.701745       12.105255        6.485348
  C            2.470779       29.266659        6.862382
  O            3.892864       29.432095        6.798299
  C            4.410901       30.105196        7.852373
  O            3.778587       30.561111        8.793659
  O            5.756636       30.192737        7.679648
  C            6.424587       30.885521        8.721950
  H            1.967622       30.239352        6.863742
  H            2.150356       28.712511        5.975337
  H            2.188787       28.691566        7.746264
  H            7.497058       30.908079        8.485947
  H            6.070232       31.924513        8.783827
  H            6.288754       30.371030        9.674131
  C           32.355147       11.870808       19.749098
  O           32.770713       12.433621       20.999836
  C           32.414934       11.692722       22.075471
  O           31.791085       10.642106       22.048647
  O           32.865760       12.323200       23.192500
  C           32.551487       11.646542       24.399093
  H           31.263703       11.793936       19.702830
  H           32.689617       12.535046       18.946903
  H           32.812041       10.891356       19.596052
  H           32.949074       12.236210       25.236122
  H           31.462048       11.570611       24.526592
  H           33.014922       10.659290       24.418083
  C           30.107578       19.443738       34.431623
  O           28.817414       19.047016       33.950076
  C           27.792678       19.467624       34.728218
  O           27.893625       20.117327       35.758459
  O           26.630884       19.036212       34.169096
  C           25.471376       19.409653       34.896133
  H           30.298861       19.017588       35.422132
  H           30.863531       19.062469       33.738970
  H           30.189556       20.531744       34.463600
  H           24.593823       19.009608       34.370525
  H           25.490202       18.971527       35.904394
  H           25.381930       20.495629       34.945702
  C           38.769874       19.352153       15.006323
  O           37.827467       18.296736       14.778803
  C           37.335134       18.268604       13.518122
  O           37.619963       19.045794       12.618929
  O           36.462890       17.229700       13.426633
  C           35.867967       17.091635       12.146202
  H           38.300377       20.329759       14.854141
  H           39.110087       19.289403       16.044070
  H           39.637850       19.241574       14.353721
  H           35.179698       16.236280       12.178662
  H           35.282256       17.987337       11.894090
  H           36.627950       16.897938       11.388107
  C           28.911662       27.647261       16.537281
  O           29.664854       26.515245       16.990096
  C           30.630110       26.122406       16.126117
  O           30.878155       26.636077       15.045230
  O           31.272207       25.052315       16.665669
  C           32.312468       24.536968       15.850332
  H           28.390484       27.416459       15.602185
  H           28.164836       27.888467       17.299298
  H           29.560681       28.515121       16.406536
  H           32.759097       23.677104       16.367589
  H           31.910723       24.182431       14.890225
  H           33.086685       25.289232       15.693846
  C           27.025683       24.549702       39.592118
  O           27.186563       25.918836       39.983769
  C           26.540554       26.794999       39.179089
  O           25.876528       26.509180       38.193656
  O           26.763816       28.049724       39.652712
  C           26.140259       29.070050       38.889421
  H           27.435313       24.383011       38.590261
  H           27.577207       23.924144       40.300000
  H           25.973834       24.259909       39.625792
  H           26.386295       30.038262       39.345964
  H           26.527427       29.073519       37.860349
  H           25.056408       28.947519       38.896654
  C           30.699420       20.712816       38.081205
  O           30.979963       20.761901       36.676682
  C           31.991183       21.601371       36.352299
  O           32.634689       22.285629       37.134214
  O           32.163062       21.557220       35.004334
  C           33.198691       22.403012       34.530405
  H           30.391292       21.697236       38.449001
  H           29.876373       20.010317       38.241485
  H           31.568676       20.354763       38.635905
  H           33.251091       22.301351       33.438013
  H           32.974666       23.454320       34.761626
  H           34.159778       22.108089       34.953644
  C           22.718445       23.454251       22.280840
  O           21.455063       23.914216       22.776922
  C           20.439432       23.774960       21.892840
  O           20.529092       23.317701       20.762984
  O           19.302449       24.238468       22.476733
  C           18.155454       24.152695       21.646344
  H           23.019341       24.027425       21.397532
  H           23.468440       23.604450       23.062855
  H           22.676143       22.388987       22.046482
  H           17.298730       24.556200       22.202769
  H           18.287882       24.762378       20.740999
  H           17.944548       23.114084       21.388263
  C           12.746834       19.319105       39.038485
  O           12.985360       17.906179       39.015151
  C           14.001881       17.538845       38.200135
  O           14.681681       18.290608       37.517182
  O           14.131776       16.187126       38.267095
  C           15.168256       15.669498       37.448394
  H           12.468661       19.681173       38.043082
  H           11.915951       19.514693       39.722575
  H           13.625672       19.852656       39.405183
  H           15.185446       14.577677       37.566843
  H           14.971235       15.891526       36.389722
  H           16.136053       16.067944       37.755656
  C           29.620779       28.423528       38.567762
  O           28.708131       29.346520       37.960342
  C           28.872197       30.625514       38.372360
  O           29.694206       31.017004       39.187674
  O           27.959171       31.399253       37.727216
  C           28.022510       32.772730       38.076568
  H           29.482513       28.400606       39.653883
  H           29.412747       27.425472       38.171268
  H           30.652187       28.682213       38.321231
  H           27.245779       33.305994       37.512016
  H           27.815075       32.908530       39.147750
  H           28.994194       33.192116       37.812475
  C           11.863175       35.526920       26.135666
  O           12.127647       34.391779       25.301814
  C           11.812585       33.207839       25.877593
  O           11.353162       33.055291       26.999805
  O           12.102220       32.216125       24.993786
  C           11.820284       30.913845       25.480692
  H           12.459236       35.480461       27.053191
  H           12.145125       36.429139       25.585116
  H           10.800199       35.589933       26.375689
  H           12.094365       30.189956       24.701420
  H           12.425374       30.695764       26.372435
  H           10.756552       30.806195       25.696761
  C           17.192165       11.189234       10.630661
  O           15.816232       11.508169       10.873332
  C           14.953560       10.848752       10.064960
  O           15.257096       10.053527        9.187929
  O           13.690143       11.229368       10.392693
  C           12.683095       10.609007        9.609427
  H           17.479215       11.464711        9.610360
  H           17.805429       11.764852       11.330069
  H           17.378578       10.127862       10.804558
  H           11.707488       10.986257        9.944500
  H           12.801487       10.873309        8.548754
  H           12.702770        9.526866        9.745018
  C           14.380630       23.759503       10.313408
  O           14.331025       25.151089       10.652271
  C           13.495785       25.872961        9.868834
  O           12.828822       25.439857        8.940781
  O           13.532169       27.165658       10.288487
  C           12.697136       28.034987        9.540497
  H           14.748226       23.622989        9.290893
  H           15.074225       23.264689       10.999473
  H           13.397615       23.299166       10.428605
  H           12.803521       29.048584        9.950013
  H           13.011998       28.061205        8.487371
  H           11.652547       27.732961        9.626603
  C           16.135725       27.576153       11.141218
  O           16.774761       26.296288       11.227121
  C           17.893154       26.194141       10.471302
  O           18.358532       27.069289        9.756293
  O           18.406146       24.946334       10.639578
  C           19.587399       24.706389        9.891536
  H           15.814075       27.780042       10.114441
  H           15.251053       27.560852       11.784430
  H           16.802702       28.364795       11.494326
  H           19.914729       23.676702       10.089021
  H           19.387066       24.796582        8.814210
  H           20.381534       25.388562       10.197791
  C            2.405665       13.778638        2.999016
  O            2.936124       12.649479        2.293740
  C            3.348514       11.646173        3.103562
  O            3.307719       11.647035        4.325051
  O            3.822885       10.639057        2.323055
  C            4.294835        9.519632        3.055619
  H            3.167626       14.222039        3.648716
  H            2.099017       14.528242        2.263720
  H            1.528764       13.491882        3.582381
  H            4.660862        8.771327        2.339752
  H            5.135807        9.808279        3.702419
  H            3.488605        9.075709        3.641046
  C           31.376680        6.934952       14.207321
  O           31.062035        6.263146       15.433483
  C           29.874157        6.632332       15.967475
  O           29.104221        7.459579       15.502116
  O           29.688346        5.928416       17.115725
  C           28.472014        6.228102       17.781474
  H           31.451157        8.015915       14.366298
  H           32.345808        6.569290       13.855636
  H           30.629035        6.713693       13.443403
  H           28.421419        5.618244       18.693567
  H           28.446005        7.285887       18.080329
  H           27.617377        5.981289       17.150222
  C           29.608970        9.906976       32.476670
  O           29.021556        8.611047       32.647884
  C           27.871195        8.624465       33.361319
  O           27.339435        9.611886       33.847047
  O           27.412546        7.347667       33.450354
  C           26.204798        7.222152       34.183900
  H           29.871348       10.344127       33.445874
  H           30.524658        9.792799       31.889235
  H           28.932491       10.568218       31.932027
  H           25.925060        6.160203       34.204154
  H           26.347660        7.553871       35.222386
  H           25.402899        7.783934       33.703111
  C            4.168504       21.348841       33.538134
  O            3.981805       22.175613       34.693725
  C            3.277845       23.305283       34.447179
  O            2.826876       23.647877       33.364147
  O            3.164873       23.997228       35.612060
  C            2.446571       25.214315       35.488609
  H            4.733919       21.883047       32.767270
  H            4.740758       20.466027       33.837741
  H            3.207118       21.016152       33.142464
  H            2.418665       25.697185       36.474742
  H            2.957789       25.895412       34.793150
  H            1.422263       25.024996       35.164954
  C            6.798205       35.752891       28.975983
  O            7.265775       34.414415       29.184934
  C            6.336813       33.591082       29.724983
  O            5.196210       33.901607       30.035305
  O            6.894345       32.359479       29.869242
  C            6.019107       31.396529       30.434208
  H            6.514204       36.216511       29.926614
  H            7.613188       36.335466       28.536656
  H            5.956198       35.763330       28.281422
  H            6.562599       30.445524       30.515479
  H            5.713998       31.698977       31.446302
  H            5.148615       31.246051       29.794364
  C           31.779844       26.276534       25.802590
  O           32.233843       27.592217       26.144150
  C           31.953321       28.526026       25.205104
  O           31.379970       28.327313       24.144216
  O           32.426115       29.723168       25.643073
  C           32.198646       30.794158       24.740998
  H           32.266143       25.924941       24.886514
  H           32.048128       25.599291       26.618658
  H           30.694546       26.260907       25.686896
  H           32.621481       31.707747       25.180277
  H           32.711206       30.609860       23.785897
  H           31.129632       30.945465       24.585706
  C           21.324166       36.704623       12.870937
  O           20.502096       36.961589       11.725525
  C           20.493103       35.951783       10.824021
  O           21.112207       34.902049       10.916046
  O           19.681118       36.310079        9.794067
  C           19.587826       35.332173        8.770595
  H           22.369537       36.568400       12.574386
  H           21.263360       37.570222       13.537001
  H           20.965827       35.828247       13.414131
  H           18.920572       35.717875        7.988032
  H           20.573137       35.153303        8.316647
  H           19.165918       34.405451        9.161722
  C           34.427153       14.825626        1.506088
  O           33.346585       15.622233        1.004502
  C           33.277266       16.856006        1.557221
  O           34.027697       17.302517        2.412312
  O           32.223424       17.511016        1.001451
  C           32.036309       18.825019        1.502333
  H           34.316983       14.657711        2.582641
  H           34.401187       13.856108        1.000161
  H           35.387152       15.298723        1.291425
  H           31.162786       19.262000        0.999933
  H           31.828296       18.800697        2.581703
  H           32.907322       19.445702        1.288114
  C           24.604606       39.896430       31.546848
  O           25.841173       40.296244       30.942818
  C           26.937488       39.849287       31.599188
  O           26.938456       39.174704       32.618323
  O           28.038625       40.286599       30.932287
  C           29.264084       39.887150       31.524900
  H           24.521725       40.298952       32.561938
  H           23.784143       40.300082       30.946428
  H           24.516166       38.808551       31.560901
  H           30.085744       40.294213       30.920273
  H           29.354675       40.300019       32.539904
  H           29.347979       38.799687       31.538574
  C           18.125279        3.017459       18.102469
  O           18.784763        4.161062       18.660191
  C           19.597873        4.800503       17.786996
  O           19.799589        4.477454       16.625682
  O           20.157438        5.861242       18.427481
  C           21.042166        6.618537       17.617382
  H           18.856008        2.267796       17.781003
  H           17.493517        2.574666       18.877976
  H           17.487496        3.309700       17.266211
  H           21.443978        7.440688       18.224847
  H           21.887697        5.998930       17.285620
  H           20.512921        7.043476       16.763493
  C            7.815693       11.942398       15.257375
  O            6.653655       12.588905       14.723056
  C            5.521598       12.339043       15.421995
  O            5.432458       11.631809       16.414755
  O            4.498427       13.005716       14.824357
  C            3.244507       12.822021       15.461884
  H            7.695641       10.854016       15.239704
  H            8.672686       12.206264       14.630847
  H            8.015367       12.286363       16.273898
  H            2.489234       13.390349       14.902451
  H            2.953024       11.762046       15.442107
  H            3.274963       13.197861       16.485416
  C           22.387939       10.941920        9.550905
  O           22.410333       12.349514        9.282620
  C           23.176691       13.056385       10.146061
  O           23.805182       12.597956       11.088686
  O           23.121005       14.366684        9.787570
  C           23.884258       15.222519       10.622729
  H           21.969017       10.743622       10.543116
  H           21.750061       10.461152        8.803527
  H           23.390460       10.517795        9.469848
  H           23.767352       16.251572       10.256965
  H           23.510903       15.186746       11.656280
  H           24.941396       14.956847       10.581787
  C           16.446480       33.634727        6.985428
  O           15.345303       32.774860        7.304545
  C           14.292146       33.421085        7.857495
  O           14.229280       34.618172        8.095680
  O           13.317969       32.506599        8.108880
  C           12.151715       33.058653        8.698446
  H           16.838815       34.112803        7.889207
  H           17.240186       33.024927        6.544095
  H           16.147755       34.389234        6.255370
  H           11.434788       32.243893        8.867505
  H           12.388040       33.508604        9.673431
  H           11.694485       33.791656        8.032528
  C           27.908722        9.030694       27.563082
  O           28.142410        7.821527       28.295957
  C           29.223140        7.877810       29.109195
  O           29.972069        8.834408       29.242329
  O           29.335920        6.682857       29.747841
  C           30.441289        6.608416       30.633909
  H           28.756418        9.255805       26.907310
  H           27.019300        8.888260       26.942405
  H           27.722372        9.863994       28.243071
  H           30.448240        5.609149       31.089777
  H           31.385346        6.736010       30.084930
  H           30.349071        7.351782       31.426818
  C           38.596716       22.346969       18.659430
  O           39.209933       23.234578       19.602782
  C           38.645615       24.464489       19.639745
  O           37.708493       24.845024       18.953673
  O           39.306380       25.206475       20.567833
  C           38.811803       26.529279       20.702299
  H           38.687696       22.740868       17.641655
  H           39.116470       21.385580       18.706195
  H           37.547389       22.181961       18.910797
  H           39.412744       27.043920       21.464147
  H           38.920815       27.080099       19.756987
  H           37.771034       26.519208       21.028642
  C           10.706777        9.230741       20.089123
  O           12.114058        8.979147       20.189425
  C           12.835080        9.503905       19.170966
  O           12.386794       10.132804       18.223747
  O           14.144664        9.204351       19.380150
  C           15.013518        9.697142       18.372802
  H           10.297019        8.780586       19.178760
  H           10.214977        8.773751       20.952773
  H           10.504415       10.303225       20.107177
  H           16.038930        9.397736       18.628314
  H           14.764965        9.253689       17.397881
  H           14.970365       10.786103       18.326975
  C           37.978058       33.099665       26.698422
  O           37.854112       33.522610       25.334767
  C           36.597791       33.413161       24.842651
  O           35.623538       32.992845       25.449171
  O           36.608163       33.845419       23.553642
  C           35.342801       33.777319       22.915895
  H           37.715306       32.041475       26.800875
  H           39.020682       33.228455       27.003295
  H           37.352122       33.711628       27.350499
  H           35.458860       34.138208       21.885027
  H           34.988107       32.737526       22.872033
  H           34.619626       34.413556       23.427775
  C            4.426720       39.276007       35.221016
  O            4.927216       37.986972       34.844596
  C            5.170761       37.169163       35.895488
  O            5.009023       37.447968       37.074390
  O            5.633445       35.985215       35.413110
  C            5.933896       35.033476       36.421288
  H            5.155116       39.807710       35.842330
  H            4.259151       39.857554       34.309795
  H            3.475100       39.181671       35.747344
  H            6.304630       34.122303       35.932698
  H            6.727827       35.409280       37.082609
  H            5.038846       34.782518       36.991993
  C           11.735945       29.506163       14.479843
  O           10.739627       29.311274       15.491361
  C            9.691915       30.163059       15.395118
  O            9.555427       31.040885       14.555777
  O            8.819991       29.877833       16.398559
  C            7.670761       30.709432       16.413161
  H           12.168047       30.509955       14.550468
  H           12.533129       28.774226       14.639111
  H           11.314128       29.342912       13.486405
  H            7.038950       30.405868       17.258776
  H            7.956568       31.760228       16.564955
  H            7.099013       30.591206       15.491789
  C           19.420377       31.355219       22.737081
  O           19.165983       31.739426       21.380074
  C           18.487049       32.904598       21.262082
  O           18.093221       33.602358       22.184975
  O           18.312550       33.161511       19.938433
  C           17.604442       34.362426       19.675972
  H           18.480911       31.202074       23.278608
  H           19.972327       30.410835       22.727684
  H           20.032329       32.104938       23.241994
  H           17.510178       34.473611       18.587325
  H           16.591050       34.313480       20.099695
  H           18.148497       35.222892       20.067638
  C           39.407650       24.212635        9.990816
  O           39.946707       22.958308        9.555061
  C           39.546411       21.903932       10.303762
  O           38.806187       21.953239       11.275017
  O           40.116060       20.780254        9.792540
  C           39.777827       19.595313       10.495402
  H           39.731940       24.439494       11.011929
  H           39.783442       24.996050        9.326256
  H           38.317765       24.205823        9.930768
  H           40.290483       18.752430       10.012563
  H           40.126482       19.651290       11.536654
  H           38.702361       19.417838       10.454491
  C           29.145227       14.244371       13.461783
  O           28.887025       12.887723       13.844715
  C           29.605289       11.978236       13.145122
  O           30.404940       12.226419       12.254805
  O           29.278162       10.739265       13.599478
  C           29.963759        9.687108       12.939613
  H           28.879751       14.407432       12.411910
  H           28.525071       14.898804       14.081238
  H           30.192206       14.501030       13.633425
  H           29.626055        8.734909       13.370509
  H           29.718436        9.678952       11.867862
  H           31.040333        9.775156       13.091395
  C           35.722371        2.020191       15.172464
  O           36.092276        2.236084       13.804852
  C           37.417222        2.089280       13.569340
  O           38.267486        1.810142       14.401706
  O           37.640178        2.313014       12.246943
  C           39.001750        2.193916       11.866894
  H           36.217517        2.745689       15.826514
  H           34.640620        2.157041       15.260134
  H           35.965264        1.001896       15.481620
  H           39.076225        2.399474       10.790511
  H           39.616555        2.936156       12.396038
  H           39.366011        1.182908       12.053915
  C            7.207160       19.643264       15.361843
  O            8.480322       19.956661       15.940325
  C            9.337892       20.552859       15.079152
  O            9.111059       20.816148       13.907433
  O           10.498844       20.802224       15.741351
  C           11.491597       21.426367       14.942986
  H            7.322391       18.939905       14.530394
  H            6.588553       19.171624       16.130921
  H            6.702658       20.550725       15.024956
  H           12.385662       21.576214       15.563143
  H           11.770527       20.779868       14.098512
  H           11.145871       22.398980       14.590428
  C           27.884378        2.936088       26.051435
  O           28.051883        3.918139       25.021232
  C           28.414866        5.137145       25.484661
  O           28.589031        5.436675       26.656689
  O           28.545639        5.973536       24.420778
  C           28.921313        7.295292       24.773385
  H           27.090226        3.233586       26.744341
  H           27.596851        1.991580       25.580444
  H           28.820369        2.779264       26.590720
  H           28.991865        7.888769       23.851861
  H           28.156016        7.756106       25.414377
  H           29.894805        7.299900       25.265414
  C            9.868450       26.063063       27.453659
  O            8.477117       26.149169       27.121127
  C            7.721638       26.726773       28.084519
  O            8.126176       27.145611       29.159053
  O            6.432635       26.754323       27.652995
  C            5.529931       27.335659       28.580181
  H           10.015345       25.448296       28.347965
  H           10.391365       25.588879       26.618010
  H           10.291738       27.058115       27.602652
  H            4.522437       27.302951       28.143963
  H            5.512118       26.758073       29.515583
  H            5.792601       28.376975       28.771145
  C           33.957961       15.889415       23.516297
  O           34.127748       14.526864       23.105901
  C           35.258346       14.309379       22.393897
  O           36.088394       15.153290       22.089702
  O           35.307788       12.990043       22.069228
  C           36.451355       12.628520       21.311564
  H           33.886525       16.549853       22.645654
  H           33.025437       15.962372       24.083463
  H           34.778730       16.202202       24.164374
  H           36.393280       11.553171       21.095572
  H           36.464466       13.165678       20.352299
  H           37.363866       12.820825       21.877375
  C           24.278294       21.126938       19.285077
  O           23.278765       20.647109       20.193101
  C           22.739658       19.459208       19.831500
  O           23.028099       18.813995       18.834403
  O           21.815953       19.110664       20.766265
  C           21.168460       17.876772       20.500253
  H           23.850816       21.290833       18.290240
  H           24.653019       22.082830       19.662505
  H           25.115421       20.428690       19.228794
  H           20.441728       17.691266       21.302654
  H           20.617390       17.926982       19.550147
  H           21.889939       17.058768       20.488509
  C            1.759107       17.242235       26.109918
  O            1.047557       18.067086       25.178726
  C            1.852728       18.771473       24.349246
  O            3.074797       18.755876       24.351040
  O            1.066635       19.505430       23.517461
  C            1.793796       20.299338       22.593639
  H            2.390209       17.852856       26.764252
  H            1.027286       16.714841       26.728701
  H            2.362559       16.499639       25.584659
  H            1.073519       20.855010       21.978148
  H            2.420977       21.030852       23.123196
  H            2.398480       19.670469       21.938901
  C           38.556828       38.937046        4.702534
  O           37.985342       38.035055        3.746700
  C           36.718349       37.660304        4.041301
  O           36.073780       38.014482        5.017410
  O           36.288535       36.815517        3.066573
  C           34.965412       36.342045        3.260658
  H           38.612953       38.468985        5.691002
  H           39.572168       39.182018        4.377461
  H           37.980155       39.862501        4.752342
  H           34.718129       35.666417        2.430731
  H           34.893956       35.768601        4.196048
  H           34.256249       37.170827        3.257543
  C           39.569210       21.150362       38.932560
  O           38.540487       21.380011       37.961587
  C           37.827503       20.271977       37.651079
  O           38.001916       19.153709       38.112335
  O           36.887375       20.616620       36.731361
  C           36.069286       19.535095       36.314786
  H           40.301296       20.427523       38.557254
  H           40.082586       22.098333       39.118022
  H           39.140211       20.802880       39.874216
  H           35.353961       19.912968       35.571871
  H           36.676350       18.755080       35.833176
  H           35.511395       19.127747       37.158958
  C           24.689193        5.953278       30.873566
  O           24.913773        5.000315       31.920096
  C           25.060257        3.729508       31.477272
  O           25.006880        3.364943       30.311964
  O           25.270305        2.926744       32.554281
  C           25.436041        1.556922       32.224706
  H           23.764823        5.723873       30.332999
  H           24.587800        6.943135       31.327990
  H           25.536107        5.977141       30.185331
  H           25.590470        0.996586       33.156680
  H           24.530510        1.164146       31.740308
  H           26.309719        1.418081       31.586577
  C           12.317797       26.676625       33.036470
  O           11.008698       27.258145       33.079992
  C           10.171128       26.649536       33.952099
  O           10.442488       25.687460       34.655288
  O            8.972464       27.289497       33.905684
  C            7.996023       26.741834       34.776964
  H           12.266679       25.631967       32.711851
  H           12.916608       27.235437       32.311381
  H           12.804404       26.748516       34.010916
  H            7.069319       27.319579       34.659364
  H            7.780047       25.698023       34.507309
  H            8.322511       26.815645       35.815114
  C           17.724546       12.419936       23.565303
  O           18.953518       12.798302       24.197971
  C           18.891916       12.800028       25.550266
  O           17.910304       12.524709       26.224310
  O           20.109776       13.168029       26.029737
  C           20.178272       13.214354       27.445951
  H           16.925186       13.123655       23.820457
  H           17.875238       12.445276       22.482137
  H           17.441662       11.404390       23.848397
  H           21.192188       13.527043       27.729853
  H           19.471872       13.957777       27.842463
  H           19.985941       12.229040       27.872524
  C           31.422555       29.241647       33.486153
  O           30.806983       28.215755       34.275086
  C           30.829704       26.993759       33.693098
  O           31.305382       26.728695       32.598944
  O           30.225203       26.112495       34.533605
  C           30.178283       24.785039       34.035451
  H           30.898974       29.362711       32.531949
  H           31.357521       30.183584       34.038536
  H           32.476894       29.016496       33.315341
  H           29.667822       24.157992       34.778850
  H           29.598108       24.743165       33.102421
  H           31.185810       24.395240       33.884631
  C           26.678510       19.900081       29.193131
  O           25.755322       18.864500       28.833830
  C           25.262168       18.182566       29.894143
  O           25.545126       18.377081       31.067088
  O           24.402120       17.238276       29.428168
  C           23.815034       16.444720       30.447039
  H           27.552308       19.480063       29.702407
  H           27.015620       20.391477       28.275805
  H           26.193576       20.647309       29.823995
  H           23.148499       15.713356       29.970344
  H           24.588053       15.889164       30.997221
  H           23.224839       17.063572       31.124159
  C           14.141895       12.183287       31.133285
  O           13.572214       10.896085       31.402307
  C           13.771919       10.466366       32.670360
  O           14.379027       11.067206       33.544495
  O           13.185956        9.246599       32.801950
  C           13.328073        8.678675       34.094144
  H           15.228661       12.161091       31.266505
  H           13.926007       12.442411       30.092686
  H           13.695618       12.944541       31.775804
  H           12.831401        7.699024       34.094313
  H           14.389843        8.519320       34.331107
  H           12.852409        9.309896       34.845878
  C           22.366763       35.955390       29.169301
  O           23.053665       36.104050       27.920355
  C           22.271420       35.879907       26.838526
  O           21.089794       35.568423       26.859451
  O           23.029613       36.054455       25.723548
  C           22.323849       35.842514       24.511328
  H           21.992770       34.932744       29.286022
  H           23.076461       36.158588       29.976542
  H           21.546299       36.671264       29.245881
  H           23.021064       35.998855       23.677152
  H           21.955754       34.808006       24.454773
  H           21.502077       36.553384       24.415648
  C           34.956841       30.387579       33.985643
  O           36.097381       30.673414       33.166333
  C           35.846004       30.600129       31.838200
  O           34.774258       30.313636       31.325381
  O           36.994506       30.893729       31.172436
  C           36.866637       30.846891       29.760361
  H           34.601282       29.366526       33.811494
  H           35.257680       30.475250       35.033694
  H           34.156870       31.105979       33.797369
  H           37.843090       31.089337       29.319723
  H           36.589173       29.835161       29.431247
  H           36.137573       31.581449       29.415846
  C           12.135474       16.529639       17.817703
  O           11.874840       16.111791       19.163538
  C           12.990271       15.788644       19.859160
  O           14.135616       15.820201       19.433850
  O           12.615657       15.415831       21.111827
  C           13.699971       15.044761       21.947931
  H           12.612192       15.724957       17.248030
  H           11.179862       16.770574       17.342986
  H           12.759560       17.425114       17.805837
  H           13.294358       14.755252       22.926738
  H           14.229143       14.175840       21.530974
  H           14.381789       15.884488       22.088575
  C           30.111728       22.304960        3.257321
  O           30.882930       23.073150        4.189485
  C           32.178513       22.689367        4.271189
  O           32.697853       21.777739        3.644354
  O           32.801411       23.489361        5.177007
  C           34.174873       23.185762        5.361207
  H           30.086073       21.250633        3.552342
  H           29.087944       22.690261        3.260604
  H           30.513360       22.407476        2.247528
  H           34.580903       23.877227        6.111818
  H           34.295975       22.162212        5.744065
  H           34.726549       23.320341        4.429894
  C            9.939721       16.159953       38.964978
  O           10.128366       14.741650       38.883548
  C            9.004160       14.027853       39.126767
  O            7.906917       14.489354       39.403848
  O            9.308165       12.707288       39.016364
  C            8.208055       11.843845       39.254532
  H            9.620961       16.450869       39.971487
  H           10.896431       16.645316       38.751131
  H            9.211894       16.495457       38.223895
  H            8.556916       10.807630       39.149868
  H            7.831765       11.971840       40.279677
  H            7.416437       12.019669       38.524993
  C           26.682978       36.856150       34.593816
  O           25.382786       37.365911       34.915448
  C           24.415282       36.972758       34.054131
  O           24.573541       36.260866       33.073385
  O           23.237015       37.512721       34.464771
  C           22.134028       37.178565       33.637570
  H           27.005691       37.212033       33.609691
  H           27.389740       37.223552       35.343552
  H           26.687772       35.765015       34.623823
  H           21.238870       37.666117       34.046696
  H           22.288365       37.557082       32.616881
  H           21.970723       36.100095       33.631768
  C           39.330284       32.336996       33.213229
  O           38.410000       31.239013       33.177023
  C           38.780014       30.245802       32.334930
  O           39.784444       30.232090       31.638774
  O           37.836928       29.268136       32.392018
  C           38.105523       28.162275       31.545007
  H           39.412614       32.805714       32.226910
  H           38.948452       33.080490       33.918935
  H           40.311138       32.006908       33.560313
  H           37.287641       27.437860       31.657666
  H           38.133196       28.479796       30.492716
  H           39.040589       27.678172       31.829779
  C            8.743115       39.020605       26.714873
  O            8.892968       37.806304       27.461076
  C            9.757042       37.907508       28.498203
  O           10.386296       38.906779       28.813158
  O            9.809479       36.702445       29.125559
  C           10.690582       36.672538       30.236982
  H            9.697765       39.322688       26.271378
  H            8.028016       38.839878       25.907054
  H            8.349680       39.817079       27.349174
  H           10.667049       35.661579       30.665712
  H           11.721968       36.880270       29.917622
  H           10.369798       37.381875       31.001010
  C           28.067138        5.724643        5.150243
  O           29.414145        5.958702        4.720603
  C           29.751623        7.268893        4.675789
  O           29.020536        8.208188        4.953164
  O           31.043454        7.360089        4.261838
  C           31.522476        8.692029        4.167102
  H           27.354521        6.186409        4.458687
  H           27.892765        4.644759        5.156905
  H           27.913938        6.102887        6.162647
  H           32.563973        8.657653        3.819968
  H           30.938783        9.260573        3.428889
  H           31.496840        9.180014        5.142301
  C           16.137928       35.046606       23.453112
  O           16.403073       35.284357       22.064957
  C           16.047815       36.521867       21.646794
  O           15.537392       37.393067       22.335401
  O           16.350705       36.626171       20.325477
  C           16.020680       37.884310       19.759199
  H           15.066104       35.129130       23.662117
  H           16.460135       34.029322       23.693770
  H           16.701711       35.741648       24.078064
  H           16.295049       37.863962       18.695852
  H           14.938237       38.065470       19.825523
  H           16.579358       38.683963       20.247293
  C           17.868086       21.191429       14.506120
  O           16.545375       20.683546       14.290973
  C           15.871160       21.320396       13.304891
  O           16.291327       22.251260       12.633586
  O           14.642024       20.749802       13.194677
  C           13.826798       21.333626       12.191155
  H           17.834370       22.243678       14.807674
  H           18.329072       20.614708       15.313266
  H           18.477659       21.072585       13.608458
  H           12.860578       20.811315       12.187916
  H           13.637464       22.393169       12.415701
  H           14.286566       21.220562       11.208491
  C           28.909791       34.942385       16.212539
  O           28.986598       33.511754       16.177986
  C           30.025650       33.039556       15.450043
  O           30.847151       33.716152       14.849166
  O           29.993628       31.681148       15.496976
  C           31.035607       31.057416       14.763670
  H           28.768192       35.346855       15.204743
  H           28.046885       35.224171       16.822941
  H           29.806012       35.365863       16.669655
  H           30.917003       29.969534       14.857715
  H           30.964154       31.314205       13.696967
  H           32.009905       31.337162       15.166518
  C            5.466965       21.128968        9.095787
  O            5.300403       19.705574        9.098429
  C            4.555117       19.246364       10.130986
  O            4.053581       19.927811       11.012912
  O            4.466460       17.894088       10.021498
  C            3.708990       17.283711       11.054057
  H            5.986954       21.459502       10.001137
  H            6.075552       21.400742        8.228400
  H            4.501295       21.630172        9.007615
  H            3.704576       16.199174       10.880392
  H            4.173448       17.467234       12.033597
  H            2.679048       17.642578       11.038749
  C           27.113375       13.973354       19.039103
  O           26.071314       13.041517       18.723525
  C           25.981639       12.009203       19.594608
  O           26.696675       11.828322       20.569136
  O           24.962259       11.203677       19.193993
  C           24.764392       10.072283       20.026637
  H           28.092205       13.482950       19.012728
  H           27.103161       14.766323       18.285647
  H           26.941840       14.427283       20.016868
  H           23.930697        9.486593       19.616369
  H           25.658620        9.432552       20.027540
  H           24.506501       10.381479       21.040388
  C            2.856950       21.546874       16.355753
  O            3.531410       20.289797       16.492350
  C            3.997162       20.054532       17.741440
  O            3.892799       20.805957       18.699651
  O            4.607865       18.839817       17.744469
  C            5.148202       18.472900       19.003798
  H            3.536931       22.376807       16.575154
  H            2.517221       21.642280       15.320339
  H            1.983071       21.588692       17.008507
  H            5.622535       17.487780       18.899173
  H            5.921999       19.189203       19.315323
  H            4.359828       18.401369       19.754230
  C           22.061544       12.910370       23.890811
  O           22.596620       12.498929       25.155014
  C           23.818888       11.923635       25.067841
  O           24.452140       11.736167       24.039470
  O           24.217956       11.583656       26.322296
  C           25.492240       10.962012       26.369830
  H           21.932501       12.049400       23.226448
  H           21.081073       13.363019       24.065122
  H           22.705962       13.657550       23.423962
  H           25.717168       10.721405       27.417644
  H           25.484114       10.020988       25.801228
  H           26.263134       11.636359       25.994626
  C           29.410685       25.893539        5.310936
  C           29.691830       25.902946        3.826123
  O           28.626278       26.537415        3.115457
  C           27.589738       25.724293        2.779275
  O           27.496939       24.536929        3.019804
  O           26.671904       26.473475        2.119800
  C           25.520074       25.741759        1.699468
  H           29.234999       26.915225        5.677257
  H           30.256178       25.462760        5.864173
  H           28.517457       25.316097        5.541161
  H           30.604300       26.489733        3.624924
  H           29.887226       24.889211        3.447623
  H           25.801234       24.940730        0.999252
  H           24.850290       26.431256        1.180736
  H           24.990837       25.330668        2.561624
  C           22.655293        8.055024       12.775527
  C           24.095708        8.018817       13.231262
  O           24.384632        9.133673       14.077796
  C           24.756678       10.270419       13.431275
  O           24.866622       10.413894       12.229765
  O           24.989848       11.222833       14.367833
  C           25.396182       12.480403       13.827266
  H           21.977299        8.089865       13.640402
  H           22.414492        7.166558       12.176242
  H           22.451514        8.940714       12.176922
  H           24.272907        7.108769       13.829437
  H           24.786280        7.965955       12.377204
  H           26.340794       12.379062       13.271894
  H           25.559159       13.170534       14.658083
  H           24.614948       12.892632       13.185284
  C           35.230224       31.882814       19.567167
  C           34.993451       30.890151       20.681779
  O           35.924962       31.095901       21.746182
  C           37.115028       30.453420       21.606321
  O           37.442979       29.735374       20.682656
  O           37.877092       30.751958       22.687400
  C           39.165523       30.136636       22.676328
  H           35.182508       32.912324       19.950223
  H           34.476467       31.767085       18.776624
  H           36.216375       31.754234       19.125271
  H           33.985771       31.040944       21.105151
  H           35.020582       29.855350       20.310901
  H           39.073808       29.040011       22.677140
  H           39.693346       30.437311       23.584126
  H           39.744313       30.473502       21.813818
  C           21.371447       26.107982       19.937819
  C           21.256574       25.591065       18.522403
  O           19.923185       25.752608       18.033548
  C           19.070009       24.737016       18.332318
  O           19.337993       23.729920       18.957011
  O           17.859326       25.043473       17.804178
  C           16.856886       24.054264       18.039509
  H           21.046836       27.156997       19.993446
  H           22.408778       26.042182       20.292945
  H           20.737200       25.543225       20.618319
  H           21.913843       26.178083       17.858470
  H           21.594570       24.547432       18.446980
  H           17.141080       23.094710       17.581809
  H           15.928569       24.394200       17.574996
  H           16.681701       23.932588       19.110446
  C           28.192243       29.141391       26.800947
  C           29.074638       28.006416       26.335103
  O           28.536768       26.747975       26.747441
  C           28.900598       26.343150       27.993372
  O           29.627596       26.940258       28.762291
  O           28.310040       25.145579       28.229305
  C           28.609898       24.593855       29.511680
  H           27.163519       29.005026       26.437586
  H           28.570116       30.104504       26.431994
  H           28.141918       29.183649       27.887216
  H           29.110624       27.992878       25.232414
  H           30.111770       28.137641       26.676039
  H           29.690361       24.412406       29.615007
  H           28.091448       23.636436       29.599197
  H           28.252900       25.252707       30.305951
  C            8.716232       36.062460       14.873169
  C            8.947680       36.080615       13.379883
  O            9.227229       34.764612       12.897195
  C           10.532598       34.389717       12.960959
  O           11.456386       35.060772       13.376413
  O           10.626166       33.128278       12.472475
  C           11.953652       32.602375       12.475352
  H            7.910629       35.359887       15.130648
  H            8.439956       37.061677       15.236125
  H            9.605693       35.734803       15.407772
  H            8.032463       36.421718       12.866631
  H            9.739321       36.792344       13.104480
  H           12.615542       33.211281       11.841212
  H           11.919305       31.591204       12.063704
  H           12.342072       32.546384       13.494368
  C           17.108771       18.442640       11.595600
  C           15.761240       17.781427       11.420222
  O           14.747696       18.510658       12.115888
  C           14.591443       18.179191       13.425206
  O           15.218315       17.336200       14.035696
  O           13.603623       18.955908       13.934637
  C           13.326508       18.711124       15.313799
  H           17.070204       19.491173       11.266978
  H           17.877702       17.919593       11.011078
  H           17.413925       18.448688       12.640179
  H           15.482156       17.785186       10.352749
  H           15.788153       16.726235       11.728354
  H           12.990901       17.674190       15.465901
  H           12.520937       19.381090       15.622509
  H           14.205446       18.924524       15.925623
  C           38.201632       20.234348       33.554454
  C           37.565487       20.548467       32.220120
  O           37.410763       21.959820       32.055363
  C           36.266947       22.481223       32.573460
  O           35.387515       21.866540       33.143604
  O           36.275888       23.816507       32.337800
  C           35.122183       24.499671       32.828770
  H           39.162285       20.759169       33.657459
  H           38.378486       19.155093       33.656588
  H           37.571937       20.560540       34.379914
  H           38.222911       20.201552       31.404740
  H           36.611332       20.016557       32.094587
  H           34.209732       24.123068       32.342349
  H           35.226871       25.559817       32.587462
  H           35.049226       24.398952       33.913635
  C            8.947084       36.053052       21.718465
  C            7.756292       35.202071       21.342108
  O            6.765432       35.988108       20.676268
  C            5.884726       36.623581       21.494273
  O            5.865282       36.577349       22.708269
  O            5.022093       37.320162       20.713736
  C            4.029815       38.040177       21.445694
  H            9.360139       36.553520       20.830874
  H            9.735619       35.438899       22.174018
  H            8.668465       36.834775       22.422440
  H            8.070505       34.416684       20.633703
  H            7.342323       34.680565       22.217186
  H            3.402729       37.352279       22.032685
  H            3.390212       38.560574       20.729318
  H            4.496225       38.784132       22.094843
  C           27.183371       21.437956        8.836316
  C           26.736634       20.037071        8.487392
  O           25.936388       20.043588        7.303093
  C           24.611143       20.274042        7.501120
  O           24.063691       20.464168        8.569038
  O           24.000646       20.250419        6.290610
  C           22.591871       20.476134        6.347214
  H           27.718856       21.894306        7.991390
  H           27.849412       21.427615        9.709690
  H           26.333738       22.080893        9.057801
  H           27.618184       19.408744        8.274143
  H           26.214372       19.560304        9.329435
  H           22.095224       19.693547        6.940425
  H           22.200045       20.434811        5.328458
  H           22.377801       21.464686        6.758724
  C            7.806198       35.338886       32.178936
  C            6.841209       36.378038       32.701200
  O            5.665845       35.756063       33.225287
  C            4.690195       35.500928       32.313359
  O            4.728830       35.754195       31.125645
  O            3.656314       34.913911       32.965355
  C            2.548846       34.590666       32.124030
  H            8.052710       34.610930       32.965200
  H            8.735989       35.810473       31.833110
  H            7.375063       34.778418       31.351712
  H            7.307580       36.932604       33.533278
  H            6.598386       37.124206       31.930895
  H            2.128268       35.499114       31.667043
  H            1.776070       34.128510       32.742358
  H            2.847342       33.875851       31.354395
  C           13.438286        2.854011       10.016438
  C           12.089255        3.138541        9.397602
  O           11.430622        4.200753       10.091077
  C           10.704506        3.821184       11.176103
  O           10.567184        2.687701       11.591626
  O           10.152099        4.935619       11.715992
  C            9.351631        4.684561       12.871423
  H           14.054141        3.764641       10.035820
  H           13.972185        2.081173        9.447077
  H           13.338319        2.516778       11.046283
  H           12.222469        3.472025        8.354317
  H           11.467515        2.232607        9.354911
  H            8.503526        4.028775       12.623099
  H            8.955130        5.639344       13.223949
  H            9.955546        4.246861       13.668985
  C           18.984120       24.705680       25.802533
  C           17.890237       23.763300       26.248782
  O           17.308710       23.098114       25.125236
  C           16.297234       23.770505       24.514166
  O           15.854417       24.855307       24.835751
  O           15.861883       23.012326       23.477713
  C           14.788192       23.598578       22.741306
  H           19.742883       24.166994       25.216875
  H           19.474097       25.170790       26.668614
  H           18.591225       25.494190       25.163639
  H           18.317198       22.980134       26.898209
  H           17.132021       24.284146       26.851217
  H           13.908314       23.745867       23.385604
  H           14.513375       22.912390       21.937116
  H           15.100676       24.544866       22.294884
  C           27.913187       14.867575       32.671344
  C           28.146370       15.858254       31.554214
  O           29.490980       15.772481       31.077068
  C           30.395468       16.527164       31.756004
  O           30.164029       17.251853       32.703402
  O           31.609860       16.332555       31.185059
  C           32.664783       17.073174       31.799407
  H           28.158604       13.848020       32.340922
  H           26.864328       14.888202       32.996873
  H           28.545484       15.083390       33.530370
  H           27.488606       15.617744       30.701629
  H           27.888390       16.881308       31.863902
  H           32.476554       18.154831       31.724646
  H           33.591931       16.848827       31.267275
  H           32.785813       16.775108       32.842914
  C           33.503262        9.800000       14.391682
  C           34.898733       10.348388       14.202657
  O           35.871991        9.312503       14.353363
  C           36.278977        9.081777       15.629970
  O           35.900749        9.667951       16.624778
  O           37.190881        8.078725       15.599685
  C           37.711969        7.729921       16.882496
  H           33.317348        8.968965       13.696185
  H           32.751237       10.580802       14.214740
  H           33.364460        9.408755       15.397645
  H           35.007015       10.742172       13.177665
  H           35.093972       11.192546       14.879693
  H           38.233584        8.585602       17.337167
  H           38.433288        6.920850       16.747575
  H           36.913740        7.374071       17.537172
  C            7.935457       31.805616       12.219486
  C            8.798964       31.476590       11.023703
  O            8.361424       30.265077       10.404192
  C            8.884745       29.124959       10.928468
  O            9.674308       29.050400       11.848974
  O            8.371809       28.077139       10.237403
  C            8.841499       26.803977       10.681534
  H            6.876937       31.862470       11.927589
  H            8.230509       32.767893       12.659336
  H            8.012087       31.037519       12.986594
  H            8.705084       32.274451       10.267392
  H            9.863375       31.433536       11.296238
  H            9.932684       26.727414       10.561309
  H            8.373534       26.034700       10.063212
  H            8.556076       26.630949       11.721243
  C           39.690790        2.174943       27.762830
  C           38.436788        1.772040       28.503741
  O           37.604808        2.909575       28.742113
  C           37.889263        3.608003       29.873432
  O           38.762033        3.351918       30.679033
  O           37.020096        4.645954       29.949632
  C           37.201416        5.470715       31.101019
  H           39.436806        2.691099       26.825827
  H           40.301450        1.293760       27.523850
  H           40.294110        2.863777       28.350888
  H           37.850136        1.070610       27.886297
  H           38.674310        1.238538       29.435438
  H           37.046607        4.891432       32.023767
  H           36.456285        6.268706       31.067976
  H           38.193996        5.925847       31.094636
  C           18.048436       33.455527       14.649768
  C           18.610849       32.189786       14.045292
  O           17.574656       31.421958       13.429059
  C           16.911678       30.573046       14.258763
  O           17.122410       30.412012       15.444495
  O           15.969638       29.928835       13.526539
  C           15.192303       28.994036       14.275338
  H           17.511534       34.041107       13.889680
  H           18.851604       34.076674       15.068811
  H           17.335263       33.233445       15.441199
  H           19.333365       32.446639       13.251947
  H           19.166330       31.601226       14.789697
  H           15.831397       28.201049       14.692148
  H           14.470828       28.532261       13.597593
  H           14.642054       29.501984       15.070080
  C           10.418375       21.378631       30.139793
  C           11.244203       20.408673       29.326780
  O           12.536063       20.954581       29.050951
  C           12.608553       21.738912       27.942723
  O           11.696091       22.003522       27.185296
  O           13.887242       22.174710       27.825961
  C           14.112633       23.013852       26.692894
  H           10.945042       21.653277       31.065045
  H            9.448844       20.936199       30.405809
  H           10.237952       22.301333       29.591733
  H           11.405139       19.482853       29.905015
  H           10.722745       20.110472       28.405771
  H           13.901957       22.472062       25.758507
  H           15.165239       23.305596       26.690302
  H           13.504647       23.918546       26.758320
  C            6.129486       11.647349       20.414261
  C            6.025757       11.251033       18.959622
  O            6.748561       12.167653       18.134781
  C            6.053058       13.269557       17.746603
  O            4.900595       13.531557       18.028535
  O            6.873995       14.029551       16.980398
  C            6.268957       15.228434       16.495208
  H            7.182940       11.719789       20.720672
  H            5.627395       10.909933       21.055060
  H            5.679715       12.622222       20.592104
  H            6.483944       10.258236       18.811911
  H            4.977107       11.157133       18.642423
  H            5.403523       14.997256       15.856005
  H            7.007547       15.761886       15.892702
  H            5.972425       15.872089       17.325977
  C           29.416565       26.287043       22.987429
  C           29.080628       25.723246       21.626150
  O           29.296722       26.702599       20.607734
  C           28.248229       27.536119       20.374271
  O           27.171890       27.516682       20.937668
  O           28.613516       28.397177       19.392566
  C           27.598539       29.336920       19.038299
  H           30.449009       26.664734       23.005003
  H           29.311010       25.517452       23.764017
  H           28.768406       27.123818       23.240405
  H           29.748890       24.874719       21.400703
  H           28.056059       25.325064       21.597710
  H           26.705070       28.820271       18.656477
  H           27.990218       29.976768       18.244396
  H           27.342907       29.966270       19.893268
  C            7.787920       29.415613       20.560473
  C            6.581602       28.753338       21.184964
  O            6.959573       27.551567       21.860155
  C            7.001422       26.438280       21.080770
  O            6.746962       26.378414       19.894192
  O            7.375271       25.396996       21.864711
  C            7.458040       24.150740       21.172760
  H            8.560036       29.606429       21.319634
  H            7.509757       30.370767       20.094848
  H            8.239791       28.780211       19.801277
  H            6.142687       29.422384       21.944656
  H            5.792587       28.571779       20.440926
  H            6.477953       23.868456       20.759549
  H            7.761951       23.384090       21.888991
  H            8.209138       24.200135       20.381678
  C           26.532306       21.841893       32.905388
  C           27.330473       22.681319       31.934773
  O           27.868627       21.868345       30.889564
  C           29.066485       21.287675       31.166256
  O           29.703057       21.401906       32.194861
  O           29.432601       20.556428       30.084666
  C           30.685242       19.887557       30.234004
  H           25.741646       21.288821       32.378256
  H           26.066397       22.473344       33.673957
  H           27.160408       21.103339       33.399682
  H           26.669422       23.422959       31.454792
  H           28.114742       23.254704       32.449799
  H           31.498831       20.612899       30.385506
  H           30.886369       19.333765       29.314241
  H           30.644506       19.176849       31.062034
  C           27.775085       13.020658        9.592870
  C           26.563230       12.748010       10.453610
  O           26.581084       11.403228       10.937594
  C           26.031396       10.480536       10.103878
  O           25.535515       10.696133        9.015798
  O           26.129471        9.268626       10.704093
  C           25.583564        8.195537        9.936456
  H           28.699430       12.805006       10.147830
  H           27.795512       14.070759        9.271359
  H           27.782068       12.388340        8.707193
  H           26.580924       13.406609       11.338671
  H           25.630331       12.975953        9.918035
  H           24.507970        8.349035        9.761709
  H           25.710149        7.271950       10.505721
  H           26.116170        8.091788        8.988845
  C           24.335064       18.789847       22.777777
  C           25.337358       18.318081       21.749845
  O           24.945069       17.055938       21.205692
  C           25.356082       15.968543       21.910845
  O           26.014265       15.977630       22.932125
  O           24.904034       14.862926       21.269079
  C           25.268036       13.635741       21.901787
  H           23.326850       18.835637       22.341534
  H           24.601555       19.787767       23.151457
  H           24.283962       18.106907       23.623521
  H           25.370943       19.032097       20.909337
  H           26.354427       18.283821       22.166375
  H           26.362357       13.525624       21.938345
  H           24.860274       12.813928       21.308952
  H           24.842215       13.580527       22.905792
  C            6.764465       15.438513       28.047204
  C            5.844343       16.635829       28.107309
  O            5.097947       16.637131       29.326280
  C            3.943911       15.918749       29.299264
  O            3.502715       15.297812       28.352647
  O            3.363778       16.019805       30.520670
  C            2.129863       15.310768       30.636943
  H            7.426765       15.415933       28.924557
  H            7.383756       15.469013       27.140536
  H            6.202401       14.506646       28.050068
  H            6.441453       17.563597       28.097032
  H            5.187056       16.682204       27.227012
  H            1.386393       15.703145       29.926808
  H            1.747778       15.457738       31.649618
  H            2.285331       14.241480       30.479296
  C           15.382543       18.929305       30.031307
  C           15.521374       19.895104       31.185325
  O           14.606146       19.564339       32.232203
  C           13.363403       20.101194       32.105807
  O           12.976961       20.822024       31.207271
  O           12.625261       19.692813       33.167395
  C           11.286268       20.188695       33.167717
  H           15.521472       17.894208       30.375070
  H           16.127323       19.143680       29.252946
  H           14.391425       18.985050       29.585352
  H           16.536062       19.819930       31.612124
  H           15.402390       20.936858       30.854128
  H           11.277801       21.288249       33.211414
  H           10.782615       19.806195       34.058294
  H           10.745669       19.834629       32.287496
  C           23.819048       34.256535       14.130968
  C           24.918360       34.858551       13.286639
  O           25.580239       33.846423       12.524725
  C           26.599839       33.214082       13.164380
  O           26.988873       33.433363       14.294366
  O           27.114295       32.291661       12.314041
  C           28.205474       31.547619       12.856746
  H           23.110593       33.698509       13.502002
  H           23.268791       35.040029       14.669349
  H           24.218905       33.553303       14.858895
  H           24.483769       35.569973       12.563860
  H           25.625972       35.435200       13.899715
  H           29.044656       32.213628       13.108154
  H           28.545032       30.839798       12.097279
  H           27.885917       30.983224       13.735234
  C           39.273153       21.571561       27.120474
  C           38.283496       21.533773       28.261943
  O           38.389157       20.302419       28.979998
  C           37.650422       19.275919       28.480831
  O           36.924535       19.316243       27.507301
  O           37.862633       18.191620       29.266873
  C           37.140158       17.029504       28.859052
  H           40.295611       21.407835       27.490169
  H           39.236892       22.541458       26.606193
  H           39.069396       20.787673       26.393629
  H           38.511562       22.341883       28.977725
  H           37.257292       21.713631       27.910296
  H           36.055503       17.211148       28.898149
  H           37.377696       16.220715       29.553699
  H           37.442660       16.721919       27.855915
  C            3.577372        3.965760       30.937581
  C            4.686100        3.584648       29.984021
  O            5.242937        4.747943       29.367842
  C            4.603188        5.170830       28.245127
  O            3.629456        4.655805       27.732394
  O            5.248194        6.273578       27.790689
  C            4.682018        6.828246       26.603007
  H            3.942068        4.682641       31.687233
  H            3.190521        3.079447       31.458441
  H            2.752752        4.445951       30.414399
  H            5.503293        3.095881       30.541428
  H            4.341290        2.853975       29.238150
  H            4.723829        6.103503       25.775964
  H            5.272032        7.703519       26.322152
  H            3.653617        7.148994       26.781644
  C           25.695111        9.032712       29.776018
  C           26.544775        8.840467       31.010892
  O           25.933964        9.460844       32.144489
  C           26.225899       10.778314       32.310764
  O           26.945531       11.452857       31.601243
  O           25.572740       11.211410       33.417295
  C           25.792687       12.589784       33.718139
  H           24.677714        8.651138       29.943963
  H           26.131146        8.503916       28.917678
  H           25.600523       10.086317       29.520541
  H           26.627039        7.764493       31.240918
  H           27.571288        9.201488       30.852667
  H           26.858549       12.780692       33.914334
  H           25.228584       12.834631       34.620878
  H           25.432087       13.222486       32.904470
  C            4.562759        4.313337        7.159928
  C            5.614807        5.184915        6.513905
  O            6.772848        4.415367        6.182637
  C            7.685649        4.283625        7.181655
  O            7.605834        4.755305        8.298547
  O            8.710986        3.531987        6.710141
  C            9.754334        3.313350        7.660100
  H            4.309339        3.465669        6.507135
  H            3.648702        4.889245        7.358246
  H            4.917734        3.894856        8.099697
  H            5.224571        5.598552        5.568379
  H            5.866455        6.047673        7.147485
  H           10.208396        4.267640        7.966953
  H           10.525562        2.704197        7.183403
  H            9.375075        2.771037        8.528696
  C           18.961366       34.712713       32.798571
  C           17.875949       35.692602       32.417144
  O           18.346493       36.603319       31.421059
  C           18.987293       37.703252       31.898681
  O           19.183795       37.973173       33.066940
  O           19.368389       38.455101       30.836566
  C           20.056111       39.654793       31.192342
  H           19.331509       34.181195       31.910098
  H           18.582954       33.973557       33.517566
  H           19.815124       35.220668       33.242844
  H           17.023344       35.148739       31.975922
  H           17.482804       36.219974       33.298288
  H           19.410672       40.309336       31.797307
  H           20.314766       40.183640       30.272278
  H           20.979244       39.423585       31.727848
  C           10.867030       39.453108       36.235112
  C            9.472058       38.934231       35.973154
  O            8.827736       38.579881       37.198831
  C            9.072038       37.316206       37.637059
  O            9.767227       36.484243       37.088561
  O            8.396288       37.142527       38.799727
  C            8.559445       35.846885       39.377215
  H           10.838742       40.300962       36.934572
  H           11.340640       39.784250       35.301015
  H           11.495166       38.688775       36.688478
  H            8.862002       39.727849       35.509040
  H            9.481985       38.096470       35.261005
  H            8.180105       35.067390       38.699360
  H            7.977543       35.810979       40.300904
  H            9.607770       35.665630       39.623309
  C           33.185394       34.010200        9.360802
  C           33.060711       35.031779        8.254172
  O           34.271953       35.107130        7.499046
  C           35.211719       35.955206        7.995239
  O           35.110627       36.639140        8.994396
  O           36.288536       35.908240        7.172525
  C           37.361898       36.760415        7.573139
  H           33.465774       33.029184        8.951051
  H           32.235666       33.905898        9.902684
  H           33.959858       34.289782       10.072378
  H           32.265675       34.724652        7.553463
  H           32.763286       36.015008        8.646471
  H           37.042803       37.813582        7.577187
  H           38.171713       36.650215        6.848463
  H           37.737284       36.468538        8.556141
  C            5.599326       20.030367       38.007059
  C            6.652416       19.283004       37.222043
  O            7.744008       20.145772       36.894845
  C            7.591184       20.864378       35.750795
  O            6.635426       20.832675       35.001248
  O            8.701376       21.625621       35.587751
  C            8.680486       22.437309       34.413219
  H            6.037997       20.483487       38.907697
  H            4.789480       19.354332       38.313043
  H            5.169677       20.840767       37.421437
  H            7.064401       18.465792       37.838350
  H            6.225220       18.808877       36.326607
  H            8.618660       21.813091       33.509047
  H            9.613389       23.004201       34.375460
  H            7.849102       23.144307       34.450026
  C           29.516273       15.662606        7.796831
  C           30.456698       15.085580        8.829518
  O           31.419914       14.229332        8.211412
  C           31.024786       12.939182        8.044118
  O           29.955229       12.464169        8.370784
  O           32.041334       12.268001        7.448512
  C           31.764893       10.887126        7.212788
  H           30.079404       16.189945        7.013444
  H           28.814985       16.369141        8.261055
  H           28.942388       14.880797        7.303140
  H           31.019056       15.900772        9.315950
  H           29.907011       14.569585        9.629951
  H           31.581566       10.358946        8.160637
  H           32.640981       10.441908        6.735976
  H           30.912472       10.775870        6.539437
  C           21.293124        2.292936       34.413139
  C           22.614305        2.479396       33.703552
  O           22.544919        3.575791       32.789165
  C           22.074804        3.268190       31.551032
  O           21.723679        2.171003       31.164777
  O           22.069783        4.406738       30.814634
  C           21.598900        4.230789       29.478179
  H           20.992551        3.221180       34.920011
  H           21.362954        1.491390       35.160901
  H           20.499058        2.042871       33.712263
  H           23.399044        2.725636       34.439046
  H           22.937429        1.553626       33.205918
  H           22.243043        3.529057       28.927134
  H           21.636993        5.199198       28.974362
  H           20.563703        3.883272       29.478630
  C            4.768057       11.673782       32.602834
  C            4.566173       12.799775       31.615320
  O            5.717426       12.951671       30.781927
  C            6.696829       13.748022       31.287095
  O            6.675343       14.329406       32.353786
  O            7.708237       13.784668       30.384703
  C            8.813669       14.594799       30.785338
  H            5.011054       10.738683       32.078008
  H            3.861317       11.514661       33.202002
  H            5.595588       11.882811       33.277963
  H            3.718789       12.562226       30.949805
  H            4.304877       13.738778       32.124338
  H            8.501885       15.641830       30.917685
  H            9.565869       14.558347       29.994157
  H            9.260433       14.207598       31.703421
  C           26.287252       15.384515        2.894945
  C           25.341483       16.460778        3.375547
  O           25.695616       16.891986        4.691469
  C           25.163050       16.157657        5.704255
  O           24.428324       15.196754        5.589612
  O           25.594129       16.690648        6.874165
  C           25.105290       16.015897        8.033711
  H           27.327581       15.737947        2.936196
  H           26.055163       15.096227        1.860766
  H           26.228706       14.497039        3.522048
  H           25.418990       17.343511        2.718146
  H           24.294619       16.128397        3.323610
  H           24.006749       16.063182        8.078121
  H           25.506224       16.521333        8.915122
  H           25.446400       14.978651        8.046531
  C            5.439126       19.319619       26.499558
  C            5.385874       20.405613       25.449996
  O            4.725226       21.566422       25.958982
  C            3.371350       21.563542       25.834043
  O            2.694743       20.685813       25.335952
  O            2.903644       22.721537       26.362151
  C            1.483838       22.857497       26.295323
  H            5.923994       19.689928       27.414257
  H            6.000894       18.450375       26.131683
  H            4.440381       18.991313       26.780672
  H            6.411028       20.712997       25.181718
  H            4.919054       20.045131       24.521969
  H            1.140633       22.853394       25.249764
  H            1.213140       23.817115       26.741369
  H            0.995081       22.063432       26.863633
  C           36.049119        2.030179       26.555253
  C           34.834196        2.513534       25.797539
  O           34.579453        3.891370       26.079805
  C           33.819926        4.125535       27.182929
  O           33.348122        3.287198       27.925150
  O           33.675478        5.467793       27.309731
  C           32.889573        5.862688       28.434547
  H           36.922805        2.656435       26.324219
  H           36.283344        0.989870       26.291824
  H           35.893547        2.087206       27.630821
  H           35.019456        2.438400       24.712443
  H           33.955381        1.885930       26.004659
  H           31.866683        5.464861       28.354360
  H           32.833569        6.953504       28.443641
  H           33.358190        5.534114       29.364513
  C            7.956642       27.977435        2.367335
  C            9.047234       27.098216        2.934242
  O            8.880027       26.933707        4.344199
  C            9.446184       27.903022        5.111334
  O           10.069058       28.866902        4.712254
  O            9.196800       27.602735        6.409885
  C            9.741220       28.542211        7.337135
  H            6.965397       27.568183        2.609918
  H            8.047143       28.054147        1.275353
  H            7.997470       28.980131        2.788326
  H            8.983919       26.092336        2.485248
  H           10.045804       27.485140        2.684745
  H           10.837599       28.583398        7.251953
  H            9.487895       28.209359        8.346162
  H            9.305956       29.531493        7.181362
  C           30.241939       22.918417       18.256533
  C           30.833636       22.395333       19.544973
  O           31.848136       23.278399       20.028691
  C           33.092303       23.062130       19.524829
  O           33.407525       22.203264       18.725276
  O           33.928068       23.975917       20.077177
  C           35.281945       23.863721       19.637598
  H           29.855030       23.938207       18.395204
  H           29.419846       22.274264       17.916341
  H           30.990630       22.967724       17.468288
  H           30.051196       22.351267       20.321662
  H           31.209423       21.368701       19.427026
  H           35.700153       22.882897       19.909782
  H           35.867266       24.637369       20.139562
  H           35.350141       24.025174       18.559784
  C            7.617447       13.089614        4.205993
  C            7.289561       12.971208        2.735527
  O            7.315030       14.255419        2.108508
  C            6.151458       14.955571        2.175505
  O            5.119516       14.590948        2.703184
  O            6.342640       16.139276        1.542343
  C            5.191247       16.983657        1.531562
  H            8.588003       13.586788        4.346492
  H            7.659727       12.097822        4.676164
  H            6.875399       13.688707        4.730161
  H            8.054571       12.354911        2.233194
  H            6.329017       12.459753        2.577827
  H            4.357715       16.499461        1.000734
  H            5.448809       17.902463        1.000000
  H            4.897978       17.245760        2.550235
  C           26.105861       16.970443       16.713824
  C           25.750706       17.206406       18.163647
  O           25.342495       15.986878       18.787437
  C           24.024738       15.680421       18.652527
  O           23.187178       16.338703       18.068184
  O           23.804631       14.505241       19.292141
  C           22.449469       14.059044       19.235164
  H           26.880712       16.195198       16.627207
  H           26.479150       17.893311       16.249638
  H           25.244594       16.622772       16.146688
  H           26.640298       17.563001       18.710334
  H           24.988842       17.992385       18.268044
  H           21.779254       14.785339       19.719217
  H           22.380037       13.113657       19.777863
  H           22.145729       13.885479       18.200748
  C           30.927372       23.624971       12.427345
  C           29.826995       23.451026       11.406212
  O           29.466022       22.073431       11.284026
  C           30.213727       21.354812       10.404750
  O           31.132964       21.773024        9.729175
  O           29.749042       20.080981       10.409358
  C           30.445227       19.206610        9.520763
  H           30.626156       23.200530       13.395859
  H           31.162778       24.688580       12.568126
  H           31.835294       23.107870       12.123067
  H           28.923511       23.990005       11.738804
  H           30.106464       23.886613       10.436026
  H           30.347127       19.549818        8.479809
  H           29.995106       18.214424        9.598606
  H           31.497323       19.130624        9.803111
  C           10.360218       34.466020       18.764314
  C           11.832656       34.718685       18.536524
  O           12.157400       36.084147       18.806814
  C           11.985281       36.937792       17.762656
  O           11.595203       36.646438       16.649439
  O           12.331403       38.180194       18.181268
  C           12.202536       39.187205       17.177215
  H           10.072521       34.753408       19.785851
  H           10.120545       33.404156       18.617685
  H            9.747583       35.055159       18.084686
  H           12.426880       34.104524       19.234452
  H           12.139861       34.419530       17.523986
  H           12.861883       38.972357       16.322755
  H           12.505704       40.141914       17.612783
  H           11.164240       39.272190       16.849925
  C           35.648819       28.110177       25.738144
  C           35.843552       27.309176       24.471543
  O           35.461483       28.075340       23.326984
  C           34.142097       28.015213       23.004178
  O           33.285381       27.379581       23.585822
  O           33.947324       28.790572       21.908969
  C           32.594993       28.818772       21.451578
  H           36.203620       29.057944       25.684912
  H           36.000232       27.546322       26.612831
  H           34.601374       28.363888       25.889102
  H           36.911984       27.062504       24.349045
  H           35.308571       26.349559       24.516605
  H           32.261069       27.811598       21.159869
  H           32.547441       29.464119       20.571598
  H           31.938802       29.234188       22.219199
  C            4.728940       13.970598       25.482515
  C            5.926929       13.254740       24.902713
  O            6.823179       14.185570       24.291737
  C            6.545876       14.491238       22.996256
  O            5.630428       14.049156       22.330809
  O            7.478332       15.379018       22.570849
  C            7.311497       15.789382       21.213437
  H            5.049067       14.746421       26.192809
  H            4.070305       13.264942       26.006679
  H            4.152073       14.469746       24.706386
  H            6.487375       12.754648       25.710926
  H            5.622261       12.463124       24.202983
  H            7.395363       14.928679       20.532881
  H            8.108282       16.496434       20.971960
  H            6.351895       16.293114       21.079954
  C           25.073912       33.795614       30.169574
  C           25.792504       35.122718       30.248429
  O           27.208289       34.932994       30.197853
  C           27.803083       34.690504       31.396193
  O           27.250354       34.628417       32.476441
  O           29.131636       34.532956       31.175455
  C           29.889094       34.273645       32.357747
  H           25.374282       33.246867       29.265386
  H           23.985754       33.943344       30.145335
  H           25.317369       33.162324       31.020440
  H           25.521807       35.743620       29.377451
  H           25.489209       35.691708       31.139138
  H           29.807729       35.113004       33.064752
  H           30.937950       34.166043       32.072398
  H           29.562450       33.343023       32.826412
  C           29.520708       39.712911       27.894312
  C           29.268029       38.234898       28.082543
  O           29.540439       37.844687       29.430329
  C           30.835394       37.520837       29.688806
  O           31.753722       37.529368       28.893255
  O           30.924198       37.179715       30.998138
  C           32.239306       36.809194       31.412870
  H           28.928599       40.300300       28.610747
  H           29.252477       40.026837       26.876469
  H           30.565948       39.961192       28.067891
  H           28.203592       38.013497       27.894509
  H           29.840252       37.634205       27.360858
  H           32.589368       35.926666       30.856452
  H           32.201222       36.552735       32.473944
  H           32.931539       37.643967       31.284931
  C           25.102767       25.383493       15.536374
  C           23.634417       25.668762       15.321034
  O           23.145984       24.962086       14.178650
  C           23.308246       25.601150       12.989588
  O           23.813764       26.693019       12.820547
  O           22.799998       24.804000       12.017561
  C           22.899913       25.355432       10.704268
  H           25.276713       24.301695       15.627779
  H           25.464830       25.875649       16.449168
  H           25.701012       25.731046       14.696368
  H           23.055637       25.311232       16.189703
  H           23.441677       26.748671       15.245224
  H           22.336687       26.298172       10.633440
  H           22.463497       24.641621       10.002047
  H           23.945865       25.510952       10.431873
  C           18.714339        7.323903        1.843315
  C           19.812624        6.291723        1.953651
  O           19.260265        4.978590        2.070182
  C           18.950912        4.590886        3.336115
  O           19.104538        5.244693        4.348655
  O           18.441023        3.336061        3.272656
  C           18.072336        2.795158        4.541630
  H           18.048779        7.091040        0.999689
  H           19.136599        8.326401        1.691015
  H           18.096551        7.342042        2.739032
  H           20.424207        6.300996        1.035349
  H           20.497570        6.520708        2.782817
  H           18.948461        2.721583        5.203439
  H           17.678714        1.789059        4.380613
  H           17.290514        3.400875        5.004513
  C           22.582414       21.942122       32.036867
  C           23.487406       21.187122       31.090947
  O           22.782969       20.824467       29.901305
  C           22.097157       19.652432       29.969103
  O           22.038024       18.905531       30.925629
  O           21.489134       19.457886       28.772834
  C           20.728915       18.251528       28.698205
  H           22.152582       22.823369       31.539323
  H           23.138139       22.275813       32.923613
  H           21.748373       21.324567       32.364435
  H           24.324745       21.835626       30.781581
  H           23.939299       20.311913       31.579724
  H           21.376007       17.373369       28.843487
  H           20.286167       18.190157       27.701557
  H           19.921813       18.260388       29.433670
  C           33.982302        1.834153       36.163914
  C           32.592108        2.390935       35.961045
  O           32.399869        2.782898       34.600013
  C           32.805470        4.045041       34.298213
  O           33.298436        4.847324       35.066084
  O           32.558423        4.256441       32.981825
  C           32.934504        5.555068       32.522553
  H           34.167955        0.998111       35.474373
  H           34.110934        1.474907       37.193912
  H           34.743130        2.585874       35.963026
  H           31.844071        1.609239       36.177356
  H           32.384691        3.217255       36.656224
  H           32.370039        6.335423       33.054931
  H           32.693357        5.622360       31.459341
  H           34.009017        5.708250       32.642372
  C           15.157699       10.956205       22.151513
  C           14.701096       10.149926       23.345342
  O           15.821172        9.727274       24.126236
  C           16.398178        8.562403       23.727814
  O           16.049573        7.866983       22.794451
  O           17.436018        8.307000       24.562234
  C           18.138221        7.100583       24.261789
  H           15.769041       11.811316       22.473920
  H           14.295999       11.334440       21.585024
  H           15.774976       10.359126       21.483108
  H           14.073992       10.778858       24.000007
  H           14.073275        9.300320       23.040203
  H           17.471577        6.229413       24.349240
  H           18.946468        6.988187       24.987877
  H           18.576911        7.150411       23.263055
  C           20.869649       15.825675       31.406609
  C           20.341238       14.844588       30.385800
  O           19.158016       15.351800       29.764733
  C           17.998864       15.086317       30.423887
  O           17.885580       14.467661       31.463470
  O           16.982374       15.632473       29.711804
  C           15.693158       15.426275       30.289909
  H           21.047351       16.806879       30.943402
  H           21.812738       15.466029       31.839897
  H           20.155991       15.980449       32.213477
  H           21.087418       14.704035       29.585263
  H           20.174972       13.852638       30.830198
  H           15.461645       14.352322       30.353364
  H           14.951145       15.899413       29.642873
  H           15.636161       15.890909       31.276452
  C           25.582329       32.964359        2.098171
  C           26.991387       32.760966        2.605110
  O           27.006145       32.674509        4.031752
  C           27.085696       33.865300        4.683126
  O           27.148952       34.965107        4.170561
  O           27.086559       33.610309        6.014884
  C           27.170694       34.780202        6.829176
  H           24.922350       32.162642        2.459528
  H           25.560867       32.968508        0.999981
  H           25.164852       33.903841        2.455083
  H           27.389011       31.805404        2.222756
  H           27.668029       33.545873        2.237446
  H           28.107628       35.323752        6.634990
  H           27.166589       34.466766        7.875523
  H           26.308113       35.428162        6.660354
  C           22.761021        6.641264       34.237764
  C           22.544434        7.937806       33.492197
  O           21.239451        7.972497       32.910118
  C           21.138965        7.402561       31.679803
  O           22.039318        6.885738       31.048488
  O           19.850021        7.515720       31.274319
  C           19.596867        6.958014       29.984483
  H           21.978211        6.496392       34.996130
  H           23.739002        6.638825       34.737812
  H           22.714468        5.785954       33.566513
  H           22.603012        8.785123       34.196485
  H           23.330067        8.105796       32.741423
  H           20.191814        7.471485       29.214169
  H           18.539052        7.102393       29.753655
  H           19.806843        5.886425       29.981751
  C           36.706840       10.179385        9.456781
  C           35.851769        9.766674       10.632503
  O           34.550676       10.351003       10.539142
  C           34.437640       11.599551       11.065403
  O           35.321742       12.240663       11.597981
  O           33.155536       12.006824       10.895291
  C           32.888792       13.312090       11.409030
  H           36.214428        9.915844        8.509692
  H           37.685461        9.681973        9.493952
  H           36.867071       11.255681        9.442159
  H           35.712116        8.672224       10.623739
  H           36.339129       10.007856       11.588228
  H           33.065087       13.347235       12.494702
  H           31.836802       13.541180       11.224820
  H           33.498777       14.058502       10.896011
  C           21.877148       32.156056       35.695864
  C           20.809654       32.517999       36.702468
  O           20.903917       33.897940       37.062854
  C           21.766379       34.173814       38.077078
  O           22.440655       33.369681       38.689469
  O           21.740102       35.512478       38.291292
  C           22.603509       35.948664       39.341563
  H           21.812240       32.807871       34.812787
  H           21.767491       31.112587       35.370829
  H           22.874220       32.284808       36.112481
  H           19.812095       32.372046       36.254167
  H           20.850320       31.862797       37.584600
  H           22.312111       35.493437       40.300133
  H           22.506206       37.032754       39.433109
  H           23.643680       35.714958       39.105289
  C           34.700939       27.054737       35.654875
  C           34.884634       25.742601       36.381755
  O           33.730911       24.913606       36.224616
  C           32.739070       25.124061       37.130463
  O           32.751546       25.930027       38.039617
  O           31.726994       24.268485       36.843594
  C           30.608896       24.376645       37.725046
  H           34.472740       26.879752       34.593647
  H           35.610239       27.667237       35.722081
  H           33.870343       27.623517       36.068276
  H           35.735536       25.192431       35.945088
  H           35.131063       25.901288       37.441562
  H           30.903997       24.144077       38.759370
  H           29.857185       23.649027       37.411034
  H           30.168571       25.374145       37.665807
  C           35.816261       19.755912       16.150606
  C           36.017329       18.417120       16.822178
  O           35.446235       18.419750       18.132462
  C           36.259117       18.886423       19.117367
  O           37.399057       19.285058       18.983476
  O           35.572891       18.825279       20.285252
  C           36.312328       19.284880       21.416976
  H           34.748820       20.018111       16.123742
  H           36.198902       19.736052       15.121193
  H           36.324606       20.551051       16.692490
  H           35.496515       17.631981       16.247974
  H           37.079253       18.132411       16.841111
  H           37.210114       18.667867       21.572776
  H           35.675223       19.192330       22.299377
  H           36.583957       20.335698       21.296973
  C           33.608912       29.958094       12.752537
  C           34.774366       29.012979       12.572888
  O           36.012242       29.690336       12.800593
  C           36.532290       30.325880       11.716972
  O           36.051030       30.361681       10.601891
  O           37.692910       30.914060       12.098556
  C           38.356531       31.621169       11.050508
  H           33.636941       30.420737       13.749570
  H           32.655059       29.425299       12.639430
  H           33.640172       30.767859       12.026174
  H           34.712243       28.201412       13.317805
  H           34.750521       28.528475       11.586082
  H           38.630116       30.938390       10.231994
  H           39.273537       32.051762       11.458906
  H           37.729581       32.434590       10.679456
  C           14.246909       19.883824        8.887990
  C           13.235726       18.970086        9.540978
  O           11.942934       19.151240        8.958851
  C           11.196734       20.148133        9.504734
  O           11.523591       20.874019       10.422641
  O           10.013069       20.189293        8.844551
  C            9.119192       21.196547        9.319129
  H           14.268853       19.721385        7.800777
  H           15.252575       19.701857        9.290511
  H           13.995611       20.930622        9.047245
  H           13.519837       17.918108        9.367706
  H           13.214478       19.108284       10.631642
  H            8.859582       21.021676       10.374128
  H            8.202760       21.143701        8.727133
  H            9.555907       22.189016        9.189962
  C           20.135715       22.746968       34.011299
  C           19.030287       23.730071       33.702532
  O           19.326926       25.012957       34.258597
  C           18.940298       25.187472       35.550365
  O           18.375377       24.371082       36.250845
  O           19.293526       26.442427       35.923078
  C           18.942226       26.768308       37.268140
  H           21.102591       23.127510       33.651801
  H           19.939671       21.778168       33.532245
  H           20.236203       22.587922       35.083170
  H           18.948828       23.865971       32.610609
  H           18.053280       23.355496       34.040542
  H           17.852096       26.717263       37.409600
  H           19.266010       27.792748       37.465083
  H           19.452516       26.104960       37.969548
  C            8.051317       23.624304       11.455446
  C            8.414842       22.509189       12.408424
  O            7.527613       21.400063       12.248219
  C            6.380066       21.467062       12.974337
  O            6.056006       22.361266       13.730435
  O            5.655970       20.351649       12.709498
  C            4.415200       20.285242       13.412976
  H            8.046260       23.259657       10.418187
  H            8.769338       24.451896       11.533141
  H            7.055074       24.011327       11.660420
  H            9.430006       22.142133       12.180143
  H            8.441408       22.862689       13.449305
  H            4.583783       20.273000       14.500372
  H            3.915313       19.355300       13.132939
  H            3.770193       21.120758       13.133194
  C           19.559385       16.181667       25.234401
  C           18.633338       17.050531       24.415065
  O           19.321934       18.206718       23.933330
  C           19.343763       19.264985       24.786673
  O           18.837658       19.312331       25.890265
  O           20.030234       20.268161       24.185844
  C           20.130276       21.455045       24.973307
  H           20.448487       15.905785       24.649349
  H           19.049655       15.262351       25.553041
  H           19.912773       16.705246       26.120563
  H           18.287755       16.491753       23.528645
  H           17.730072       17.320573       24.981005
  H           19.132405       21.868644       25.183521
  H           20.694886       22.195193       24.401909
  H           20.667193       21.254789       25.902832
  C            6.527479        9.789432       12.080678
  C            5.590766        9.344307       10.981482
  O            4.940226        8.122482       11.337772
  C            5.626487        6.989946       11.029538
  O            6.712273        6.929353       10.487599
  O            4.880961        5.930963       11.431217
  C            5.482695        4.663818       11.164646
  H            5.987307        9.884234       13.033635
  H            6.980943       10.759524       11.836156
  H            7.324767        9.065785       12.238687
  H            4.798439       10.099177       10.840807
  H            6.112951        9.261787       10.017317
  H            5.632039        4.522922       10.083514
  H            4.805789        3.884491       11.521783
  H            6.430038        4.568734       11.699341
  C           25.684862        8.089054       22.741669
  C           25.439978        6.604236       22.880045
  O           24.640486        6.330601       24.032839
  C           25.330517        6.190427       25.195942
  O           26.535007        6.270288       25.334243
  O           24.434389        5.939703       26.182193
  C           25.024136        5.764927       27.470778
  H           24.731798        8.636350       22.709480
  H           26.245924        8.306763       21.822805
  H           26.245769        8.478526       23.589014
  H           24.875760        6.238090       22.005405
  H           26.384184        6.040923       22.895956
  H           25.709203        4.903717       27.472381
  H           24.223325        5.567459       28.186884
  H           25.546639        6.672539       27.780020
  C           33.871845       28.142237       29.420873
  C           33.289551       27.067131       30.309064
  O           34.292729       26.116403       30.673413
  C           34.475887       25.100271       29.788807
  O           33.873012       24.933143       28.747217
  O           35.453080       24.296735       30.276684
  C           35.750805       23.175191       29.444639
  H           34.727015       28.628041       29.912380
  H           33.117997       28.907316       29.190946
  H           34.238495       27.726550       28.484352
  H           32.921766       27.518852       31.246124
  H           32.421521       26.583387       29.838303
  H           34.868228       22.527426       29.333024
  H           36.542522       22.596262       29.925393
  H           36.110680       23.506412       28.468328
  C           16.350131       24.971035       14.588460
  C           17.647515       25.745688       14.611021
  O           18.623857       25.117959       13.776928
  C           19.352612       24.138331       14.375129
  O           19.251373       23.765207       15.527010
  O           20.222112       23.648873       13.456978
  C           21.062314       22.606032       13.952301
  H           15.985615       24.858057       13.557313
  H           15.579729       25.485316       15.178794
  H           16.480705       23.968171       14.990348
  H           17.482489       26.757864       14.203999
  H           18.016186       25.882426       15.637902
  H           21.687188       22.969784       14.781889
  H           21.720794       22.286393       13.141540
  H           20.464239       21.748871       14.268501
  C           13.198496       31.878597       39.673144
  C           12.490185       31.414038       38.421632
  O           11.346100       30.624255       38.753766
  C           11.592098       29.300932       38.945869
  O           12.669902       28.747161       38.856568
  O           10.415612       28.700646       39.252687
  C           10.523585       27.294959       39.478930
  H           12.506372       32.428123       40.327274
  H           14.041086       32.536830       39.421605
  H           13.578099       31.036770       40.248929
  H           12.122522       32.287924       37.857233
  H           13.174196       30.877454       37.748352
  H           10.886977       26.781575       38.575944
  H            9.528340       26.911389       39.714432
  H           11.180504       27.092116       40.327288
  C           33.744114       17.295868       35.892067
  C           33.997285       16.396264       37.079678
  O           35.180524       16.798436       37.773367
  C           36.339160       16.271305       37.295565
  O           36.450949       15.505086       36.359236
  O           37.356246       16.749515       38.054150
  C           38.644261       16.271811       37.664769
  H           33.686992       18.347127       36.209072
  H           32.802287       17.027515       35.394626
  H           34.550447       17.227397       35.164441
  H           33.162049       16.482725       37.795433
  H           34.039524       15.338824       36.781120
  H           38.698855       15.176786       37.759321
  H           39.386419       16.711329       38.334937
  H           38.875942       16.581666       36.643636
  C           12.861696       26.877648       36.517405
  C           12.732106       28.374199       36.352057
  O           12.635755       28.721954       34.969023
  C           13.824135       28.887924       34.329643
  O           14.929617       28.774386       34.820883
  O           13.559466       29.209006       33.039117
  C           14.725994       29.418075       32.242686
  H           12.022242       26.361095       36.030178
  H           12.873003       26.603365       37.580956
  H           13.774110       26.505753       36.055348
  H           11.802741       28.721769       36.834629
  H           13.555739       28.906357       36.849588
  H           15.321610       30.255622       32.636076
  H           14.404866       29.671540       31.229901
  H           15.326896       28.507519       32.195726
  C           15.548381       30.214291       20.616946
  C           14.566982       30.182450       21.765702
  O           15.255359       30.075949       23.013819
  C           15.551097       28.807993       23.405515
  O           15.283041       27.786392       22.804868
  O           16.198578       28.881615       24.594611
  C           16.570006       27.612009       25.132143
  H           16.271089       31.032321       20.748924
  H           15.024996       30.358869       19.662134
  H           16.121460       29.290905       20.560031
  H           13.998005       31.127366       21.793989
  H           13.826071       29.379857       21.639232
  H           15.679813       26.993474       25.321801
  H           17.078771       27.781716       26.083699
  H           17.259672       27.097488       24.459812
  C           28.571776       30.564265       23.580048
  C           27.152934       30.045980       23.534579
  O           26.386268       30.760586       22.562693
  C           25.811429       31.909004       23.009119
  O           25.887175       32.364000       24.133192
  O           25.129763       32.460820       21.974986
  C           24.466429       33.681826       22.303515
  H           29.034541       30.511002       22.584101
  H           29.178676       29.975456       24.281102
  H           28.602602       31.607376       23.888705
  H           27.154450       28.986964       23.224932
  H           26.681917       30.076352       24.527716
  H           23.717642       33.518409       23.093207
  H           23.949925       34.038918       21.409754
  H           25.189191       34.440826       22.610000
  C           36.307834        8.282951       29.561959
  C           36.160096        9.484358       28.657198
  O           34.818540        9.976570       28.688085
  C           33.963005        9.380704       27.815387
  O           34.235003        8.494417       27.030012
  O           32.744558        9.954755       27.971759
  C           31.738740        9.424740       27.107922
  H           35.993286        8.529755       30.586189
  H           37.351518        7.941553       29.587878
  H           35.682679        7.456919       29.228564
  H           36.808790       10.301414       29.016387
  H           36.487672        9.258281       27.632169
  H           32.005533        9.587896       26.052839
  H           30.804157        9.952429       27.310897
  H           31.584150        8.361995       27.305597
  C           32.571266       12.662517       33.991189
  C           33.075903       14.079525       33.845482
  O           32.790785       14.584188       32.538951
  C           33.722109       14.296269       31.591144
  O           34.749518       13.669040       31.756411
  O           33.304189       14.838657       30.420777
  C           34.195337       14.615940       29.327592
  H           31.496492       12.610126       33.765322
  H           32.733478       12.295054       35.013518
  H           33.073981       11.989999       33.298876
  H           32.553167       14.735189       34.562595
  H           34.146579       14.151548       34.085413
  H           35.177467       15.070804       29.526385
  H           33.770423       15.091309       28.440703
  H           34.299584       13.547250       29.129012
  C            1.564639       12.571920       23.282884
  C            3.043797       12.265934       23.235284
  O            3.301480       11.157040       22.371019
  C            3.202323        9.932988       22.954512
  O            2.926490        9.707824       24.116200
  O            3.471089        8.999549       22.008438
  C            3.406711        7.655265       22.485467
  H            1.174609       12.751548       22.270703
  H            1.371129       13.461981       23.896761
  H            1.000904       11.738066       23.696635
  H            3.588242       13.130011       22.817732
  H            3.452749       12.101080       24.242597
  H            4.148893        7.487805       23.280528
  H            3.639640        6.987835       21.652772
  H            2.401392        7.422493       22.842609
  C           24.293214       24.275685        6.095480
  C           25.802450       24.335469        6.046162
  O           26.267183       25.638632        6.405036
  C           26.330945       26.532479        5.382504
  O           26.040003       26.322536        4.221652
  O           26.783364       27.707297        5.886209
  C           26.904852       28.746375        4.914429
  H           23.927084       24.574144        7.088340
  H           23.937008       23.259025        5.880962
  H           23.846161       24.957333        5.374509
  H           26.225986       23.631039        6.782230
  H           26.185206       24.022537        5.063985
  H           27.626659       28.466285        4.132416
  H           27.275743       29.641456        5.418779
  H           25.932020       28.976696        4.475168
  C           10.720021        9.434889       31.445000
  C           10.266714       10.842953       31.754303
  O           11.352967       11.622557       32.259548
  C           11.553789       11.534564       33.601385
  O           10.903825       10.872819       34.386203
  O           12.611225       12.323245       33.915090
  C           12.936526       12.330943       35.305385
  H           11.566880        9.446997       30.743870
  H            9.902815        8.852445       30.998420
  H           11.058957        8.921795       32.342863
  H            9.924185       11.334485       30.827767
  H            9.408124       10.847013       32.441258
  H           12.095890       12.718804       35.900277
  H           13.793282       12.992854       35.450103
  H           13.214665       11.329413       35.640013
  C           20.898707       34.964577       18.977623
  C           20.808933       35.127600       17.477901
  O           21.953958       35.821094       16.976917
  C           21.863588       37.177580       16.996355
  O           20.917353       37.831986       17.387115
  O           23.020392       37.677526       16.495898
  C           23.064812       39.104045       16.452669
  H           21.831882       34.453794       19.255445
  H           20.051040       34.377716       19.356510
  H           20.903145       35.929284       19.481231
  H           20.800501       34.134811       16.996551
  H           19.871951       35.621570       17.182676
  H           22.269963       39.499266       15.802272
  H           24.029278       39.401342       16.034913
  H           22.981761       39.521259       17.458370
  C           19.745545       29.530468        8.208720
  C           20.116293       30.289677        9.461696
  O           20.911416       29.476199       10.327163
  C           20.211180       28.678868       11.177182
  O           19.001601       28.604849       11.265169
  O           21.104160       27.978015       11.918795
  C           20.504099       27.094087       12.866106
  H           20.647561       29.162679        7.698820
  H           19.187690       30.173786        7.514861
  H           19.134442       28.660036        8.439376
  H           20.729246       31.167753        9.195853
  H           19.224854       30.679420        9.974079
  H           19.897111       27.655084       13.592637
  H           21.303362       26.583922       13.408333
  H           19.897619       26.341413       12.358106
  C           32.690408       11.993773        3.405708
  C           31.658501       13.097200        3.443310
  O           32.273540       14.352411        3.741929
  C           32.419521       14.625157        5.065899
  O           32.076656       13.915569        5.990685
  O           33.015088       15.838305        5.176232
  C           33.229325       16.258628        6.523908
  H           33.486044       12.233388        2.685675
  H           32.229559       11.039992        3.115154
  H           33.168089       11.865150        4.375026
  H           31.188431       13.199671        2.450368
  H           30.846099       12.863953        4.146659
  H           32.272693       16.352790        7.059621
  H           33.707935       17.240226        6.501555
  H           33.893305       15.563424        7.041808
  C           16.215480       12.018412       39.497430
  C           17.027079       10.843933       39.001741
  O           18.143925       11.292620       38.230809
  C           17.889777       11.503285       36.911859
  O           16.825909       11.342121       36.347492
  O           19.040020       11.923757       36.329841
  C           18.921032       12.182261       34.930621
  H           16.848388       12.710598       40.071195
  H           15.393126       11.678772       40.141540
  H           15.794016       12.585887       38.670000
  H           17.435537       10.285858       39.861458
  H           16.403770       10.132953       38.440411
  H           18.636084       11.268168       34.388182
  H           19.895417       12.510286       34.561741
  H           18.197389       12.979321       34.747767
  C           37.944479       16.622534        2.233993
  C           38.023266       17.027512        3.687810
  O           36.724710       17.016894        4.285003
  C           36.011952       18.165766        4.141236
  O           36.376335       19.173971        3.569355
  O           34.815780       17.991365        4.755530
  C           33.957120       19.130118        4.686664
  H           37.462958       15.639308        2.132483
  H           38.947780       16.569601        1.790051
  H           37.349024       17.328257        1.658069
  H           38.636731       16.297968        4.243531
  H           38.518771       18.001825        3.807348
  H           34.417950       19.996498        5.184682
  H           33.029028       18.887808        5.209186
  H           33.716053       19.366775        3.648261
  C           20.324449       11.025671       31.838426
  C           18.887991       11.398744       31.553459
  O           17.997952       10.642806       32.377708
  C           17.641376        9.427863       31.882362
  O           18.000233        8.945805       30.826359
  O           16.805522        8.844466       32.776563
  C           16.344065        7.552297       32.381396
  H           20.553625       11.158595       32.905529
  H           21.012096       11.649336       31.251329
  H           20.517033        9.981380       31.600376
  H           18.725167       12.462161       31.798478
  H           18.648085       11.287838       30.486105
  H           15.772327        7.612685       31.443063
  H           15.681263        7.174587       33.163144
  H           17.182611        6.860681       32.276962
  C            6.070571       24.065726       24.536974
  C            7.250803       23.899822       25.466128
  O            8.251105       24.882957       25.190734
  C            9.139646       24.548016       24.217641
  O            9.158709       23.511536       23.583887
  O           10.010618       25.577953       24.078935
  C           11.011744       25.360736       23.084268
  H            5.663534       25.084655       24.607728
  H            5.274650       23.351527       24.787830
  H            6.358842       23.910731       23.499103
  H            6.926895       24.056712       26.509137
  H            7.658494       22.879653       25.419828
  H           11.630457       24.486845       23.338255
  H           11.657557       26.241153       23.054408
  H           10.554572       25.235425       22.100555
  C           21.494035        4.737241       25.875488
  C           21.841259        5.876572       24.945349
  O           22.532649        6.909941       25.650423
  C           21.736028        7.826977       26.261194
  O           20.521159        7.845607       26.254522
  O           22.539107        8.727012       26.880550
  C           21.831272        9.760161       27.566386
  H           22.398029        4.352261       26.368930
  H           21.018489        3.915416       25.323256
  H           20.816502        5.061415       26.662990
  H           22.523110        5.516645       24.156089
  H           20.949066        6.261235       24.430445
  H           21.221357       10.347582       26.863577
  H           22.564415       10.427509       28.024915
  H           21.207553        9.338284       28.357206
  C           11.935894       11.551874       15.833068
  C           11.068155       10.354924       15.519793
  O           11.150402        9.385061       16.566503
  C           12.177992        8.501435       16.457578
  O           13.005654        8.463525       15.568850
  O           12.115908        7.660203       17.519216
  C           13.142114        6.667476       17.533154
  H           11.660232       11.984889       16.805389
  H           11.825799       12.324950       15.060584
  H           12.986175       11.273934       15.895984
  H           10.012168       10.668464       15.456683
  H           11.320106        9.920884       14.541411
  H           13.072403        6.022259       16.644427
  H           13.001303        6.045816       18.420177
  H           14.127278        7.134687       17.592869
  C            7.103601       18.818828       31.032211
  C            6.174898       19.867816       31.598722
  O            4.933093       19.280860       31.994198
  C            4.001375       19.178642       31.009285
  O            4.128662       19.538341       29.855718
  O            2.894820       18.604886       31.543083
  C            1.823208       18.437372       30.614435
  H            7.255497       18.005693       31.756531
  H            8.080451       19.256438       30.785712
  H            6.690091       18.368476       30.131937
  H            6.622844       20.309462       32.505195
  H            6.026830       20.697303       30.892233
  H            1.488904       19.410901       30.225228
  H            0.986601       17.973070       31.141325
  H            2.123378       17.778835       29.796739
  C           34.149521       37.004129       20.286669
  C           34.815912       37.397404       21.584767
  O           36.143567       37.870298       21.346638
  C           37.101798       36.906820       21.300766
  O           36.931544       35.712593       21.446145
  O           38.290829       37.515231       21.067014
  C           39.398133       36.616475       20.996882
  H           34.156071       37.845403       19.578774
  H           33.108565       36.699660       20.460480
  H           34.674197       36.180883       19.805752
  H           34.259316       38.228326       22.050779
  H           34.801635       36.571269       22.310299
  H           39.526209       36.080634       21.949494
  H           40.300308       37.202993       20.809327
  H           39.268437       35.911215       20.173360
  C           16.656351       28.131444       30.000461
  C           17.041194       28.174362       28.539690
  O           15.967208       28.690908       27.750554
  C           15.051876       27.770794       27.345392
  O           15.071212       26.579879       27.585491
  O           14.108224       28.417300       26.617277
  C           13.075830       27.565772       26.119419
  H           16.344995       29.127274       30.347276
  H           17.501429       27.793827       30.615569
  H           15.816705       27.460004       30.169174
  H           17.896809       28.857120       28.401256
  H           17.372107       27.188601       28.182099
  H           13.491931       26.801429       25.445891
  H           12.374435       28.179576       25.549868
  H           12.533462       27.097901       26.943636
  C           35.811532       11.659293       37.480016
  C           34.617655       11.898823       36.584984
  O           33.990230       13.142858       36.903914
  C           33.065369       13.086493       37.898929
  O           32.732233       12.096053       38.518888
  O           32.572060       14.336772       38.077952
  C           31.578606       14.427337       39.099542
  H           36.520439       12.496878       37.410722
  H           36.331694       10.734654       37.195457
  H           35.514379       11.580846       38.523973
  H           34.949051       11.967833       35.534835
  H           33.907134       11.060821       36.629840
  H           30.707456       13.801917       38.852667
  H           31.248271       15.466670       39.160916
  H           31.995868       14.140857       40.067127
  C           25.504238       33.115391       35.472337
  C           25.899653       31.717865       35.054762
  O           24.745726       30.883643       34.930153
  C           24.339417       30.282009       36.079740
  O           24.861809       30.385716       37.171825
  O           23.243648       29.536622       35.792879
  C           22.706549       28.838857       36.916911
  H           24.776386       33.538436       34.765113
  H           26.382658       33.773880       35.507984
  H           25.031705       33.116965       36.452648
  H           26.380252       31.749179       34.062066
  H           26.641242       31.287387       35.743117
  H           23.443485       28.130466       37.324476
  H           21.835646       28.271978       36.580346
  H           22.382997       29.542551       37.686670
  C           35.321224       28.309219       16.131235
  C           34.240605       29.053488       16.880985
  O           33.928829       28.388733       18.107320
  C           32.997645       27.402734       18.010879
  O           32.420337       27.052004       17.000926
  O           32.820340       26.877249       19.248227
  C           31.857907       25.823675       19.298268
  H           36.214184       28.187065       16.760998
  H           35.606130       28.851539       15.219523
  H           34.992278       27.310646       15.850264
  H           34.600582       30.062090       17.146578
  H           33.346487       29.199222       16.257756
  H           30.865918       26.186912       18.990021
  H           31.789654       25.474740       20.331073
  H           32.172554       24.986364       18.671924
  C            6.007518       16.910519        5.699644
  C            5.466062       17.615160        6.921981
  O            4.084661       17.937876        6.747097
  C            3.841039       19.120118        6.121356
  O            4.673640       19.905957        5.714499
  O            2.496668       19.273412        6.033218
  C            2.091836       20.485080        5.395432
  H            5.410623       16.015181        5.473846
  H            7.051232       16.606276        5.856481
  H            5.963070       17.551181        4.821079
  H            5.529553       16.944276        7.795643
  H            6.063703       18.503836        7.171338
  H            2.449584       21.360321        5.958432
  H            1.000000       20.511381        5.377995
  H            2.453588       20.516138        4.365592
  C           16.960532       13.058082       17.278443
  C           15.866459       14.089660       17.127936
  O           15.088569       14.177411       18.323840
  C           14.059671       13.292934       18.411426
  O           13.750454       12.461515       17.581110
  O           13.430637       13.504225       19.593912
  C           12.316653       12.640241       19.820568
  H           17.588952       13.286099       18.151366
  H           17.597639       13.033484       16.384021
  H           16.547989       12.063421       17.435788
  H           16.314489       15.084580       16.964221
  H           15.239445       13.885100       16.248102
  H           11.545890       12.787402       19.049032
  H           11.883129       12.892414       20.790911
  H           12.639156       11.597341       19.847984
  C            9.393021       24.288841       32.029440
  C            9.514812       24.652730       30.567745
  O           10.828044       24.362430       30.083857
  C           11.744598       25.349462       30.269051
  O           11.546998       26.428691       30.791085
  O           12.926138       24.918719       29.762077
  C           13.989064       25.864134       29.885277
  H            9.655923       23.233051       32.187837
  H            8.367414       24.452688       32.386910
  H           10.070723       24.879833       32.642422
  H            8.813089       24.042691       29.973743
  H            9.237905       25.701991       30.390341
  H           13.754560       26.788157       29.335560
  H           14.887845       25.423630       29.447955
  H           14.188836       26.082191       30.936440
  C            3.109067       23.890684       28.976659
  C            4.099092       24.304803       27.912631
  O            4.844959       23.176052       27.451543
  C            5.954012       22.878401       28.179557
  O            6.356771       23.476245       29.157652
  O            6.539872       21.792326       27.617590
  C            7.729306       21.365949       28.282609
  H            2.447122       23.097402       28.600583
  H            2.492163       24.744690       29.287469
  H            3.614472       23.492447       29.854311
  H            3.558454       24.708959       27.039837
  H            4.757452       25.110648       28.267987
  H            8.494461       22.156472       28.257886
  H            8.120089       20.493761       27.753765
  H            7.510157       21.074917       29.312014
  O           18.179991       20.927915       21.450480
  S           17.154342       20.852231       20.426315
  O           17.156748       19.619268       19.652560
  F           17.682913       21.932317       19.369089
  N           15.753108       21.425370       20.873701
  S           14.674901       21.476395       19.709241
  O           15.124198       21.975231       18.406937
  O           13.420792       22.090806       20.149479
  C           14.280230       19.677647       19.499149
  F           14.877485       19.106018       18.419137
  F           12.937244       19.490021       19.313177
  F           14.588743       18.935921       20.601130
  O           27.227527       37.353171       11.618060
  S           26.229958       37.130645       10.587556
  O           26.560405       36.078205        9.637780
  F           26.382541       38.459569        9.707567
  N           24.740676       37.198033       11.106783
  S           23.650830       37.100294        9.956225
  O           23.886811       37.892198        8.746307
  O           22.290018       37.250721       10.475515
  C           23.786775       35.315169        9.476386
  F           24.482879       35.106147        8.326756
  F           22.549788       34.772404        9.255774
  F           24.338353       34.544179       10.456710
  O           18.336929        5.960336       15.261143
  S           19.021743        5.043524       14.368347
  O           20.472731        5.159791       14.372560
  F           18.624910        5.640707       12.936706
  N           18.410505        3.588192       14.346037
  S           19.066315        2.629090       13.263846
  O           19.296633        3.189296       11.929746
  O           18.412435        1.319545       13.223434
  C           20.729381        2.312008       14.018214
  F           21.736147        3.030031       13.451852
  F           21.091297        1.000261       13.870779
  F           20.750932        2.532719       15.363770
  O           16.378148       22.745840        8.102891
  S           15.962336       23.555119        6.972064
  O           15.086492       22.876945        6.027671
  F           17.332366       23.681753        6.153112
  N           15.611814       25.049053        7.342731
  S           15.299078       25.969349        6.087202
  O           16.191436       25.845362        4.931770
  O           15.061951       27.361770        6.473253
  C           13.640093       25.326054        5.568220
  F           13.683468       24.501459        4.487451
  F           12.808134       26.351902        5.209222
  F           12.985103       24.678875        6.574125
  O           22.252508       17.752963        9.717039
  S           21.048995       17.309437        9.037744
  O           20.158451       18.380759        8.615724
  F           20.238584       16.631373       10.240724
  N           21.280509       16.118242        8.028013
  S           19.944130       15.538418        7.396353
  O           18.815231       15.325747        8.305781
  O           20.201398       14.384211        6.532803
  C           19.464708       16.905428        6.240136
  F           18.462501       17.696332        6.709126
  F           19.005524       16.403157        5.052586
  F           20.516421       17.704100        5.899957
  O           10.172642       23.025579       19.350716
  S            9.991674       21.585528       19.340410
  O            8.940434       21.097950       20.221353
  F           11.325140       21.094008       20.077959
  N           10.097970       20.932729       17.907004
  S           10.045836       19.345807       17.914888
  O           10.843728       18.658270       18.933397
  O           10.231269       18.784262       16.575342
  C            8.262891       19.041915       18.320049
  F            8.045880       18.687154       19.615021
  F            7.760015       18.011820       17.572105
  F            7.464806       20.108769       18.029220
  O           30.109309       11.117839       10.103739
  S           29.682975        9.840661        9.561839
  O           29.370018        9.856667        8.140325
  F           28.240943        9.675860       10.237919
  N           30.494717        8.603622       10.112210
  S           29.933567        7.198000        9.632171
  O           28.480871        7.011685        9.672937
  O           30.665242        6.081066       10.233178
  C           30.435189        7.195619        7.847859
  F           29.418184        7.478678        6.990259
  F           30.895763        5.963075        7.470889
  F           31.465454        8.050024        7.586621
  O           19.515329       11.193404       16.445974
  S           20.430893       12.316368       16.531380
  O           21.724004       12.003729       17.122160
  F           19.732968       13.207941       17.663501
  N           20.420993       13.254170       15.261526
  S           21.312134       14.559220       15.415840
  O           21.213375       15.287068       16.683587
  O           21.206018       15.437022       14.248662
  C           23.020694       13.846323       15.326403
  F           23.633308       13.732921       16.535429
  F           23.843704       14.641295       14.575355
  F           23.054583       12.628475       14.713706
  O            3.300082       23.128266       12.365681
  S            3.521273       24.321777       11.569938
  O            3.025098       25.552608       12.168072
  F            2.504282       24.085410       10.356034
  N            4.933442       24.374858       10.866332
  S            5.118175       25.606661        9.881633
  O            4.002760       25.913765        8.982614
  O            6.408676       25.567912        9.190831
  C            5.257534       27.013511       11.080280
  F            4.121004       27.751515       11.196681
  F            6.225769       27.897292       10.686770
  F            5.635840       26.610973       12.327094
  O           17.190401       28.804437        5.791396
  S           18.276216       29.082261        4.869214
  O           19.602410       29.069934        5.469177
  F           18.042216       30.636610        4.564345
  N           18.112756       28.397934        3.456034
  S           19.223334       28.819301        2.402390
  O           19.566481       30.241838        2.329312
  O           18.983247       28.225887        1.085455
  C           20.709495       27.931765        3.064965
  F           21.573327       28.735087        3.741994
  F           21.444406       27.382598        2.049229
  F           20.382856       26.880400        3.869725
  O           14.148467       15.810255       15.643549
  S           14.385385       14.934665       14.510495
  O           15.782373       14.806574       14.122011
  F           13.763908       15.794374       13.311176
  N           13.510765       13.620477       14.517447
  S           13.663467       12.736460       13.207372
  O           13.652804       13.441609       11.923101
  O           12.773003       11.574167       13.223104
  C           15.365964       12.039786       13.434417
  F           16.317286       12.656463       12.683022
  F           15.408731       10.722566       13.064953
  F           15.773799       12.052528       14.735650
  O           16.839506       28.547367        8.323850
  S           16.085898       29.682489        8.824023
  O           14.641673       29.500541        8.826929
  F           16.303972       30.748947        7.649796
  N           16.731846       30.380312       10.084140
  S           15.987185       31.706422       10.540226
  O           15.594148       32.645554        9.486541
  O           16.669350       32.361815       11.657907
  C           14.427987       31.016917       11.267471
  F           13.344545       31.129412       10.452979
  F           14.089228       31.679644       12.416137
  F           14.549972       29.710535       11.639204
  O           22.391686        8.937352       16.843130
  S           23.771189        8.521472       17.018105
  O           24.290066        7.671873       15.956102
  F           23.641600        7.506245       18.249453
  N           24.721182        9.655123       17.569875
  S           26.193648        9.160206       17.898508
  O           26.324772        7.886556       18.610774
  O           27.011904       10.223913       18.484241
  C           26.881607        8.907853       16.196030
  F           26.927033        7.604836       15.808754
  F           28.172989        9.354860       16.119092
  F           26.208582        9.614161       15.243211
  O           13.781580       29.258352        5.807130
  S           13.831498       30.559745        5.166440
  O           13.487664       30.555320        3.751994
  F           15.407570       30.841210        5.144699
  N           13.256462       31.735350        6.049270
  S           13.444870       33.175741        5.408274
  O           14.749522       33.473849        4.811855
  O           12.972556       34.238224        6.298302
  C           12.210991       33.123634        4.026164
  F           12.764891       32.912235        2.802071
  F           11.542807       34.313615        3.921868
  F           11.236365       32.190064        4.221746
  O            8.050372       34.163588       26.829484
  S            6.892027       33.925812       25.987879
  O            6.597373       32.521927       25.740520
  F            7.426317       34.429370       24.564972
  N            5.671613       34.881803       26.285821
  S            4.461596       34.719506       25.270627
  O            4.795078       34.619843       23.847406
  O            3.390420       35.682033       25.535627
  C            3.770862       33.078720       25.786484
  F            4.116422       32.053007       24.962833
  F            2.402331       33.101451       25.783781
  F            4.113491       32.737547       27.061594
  O           29.966658       37.121315       20.519237
  S           29.401407       35.875560       20.034277
  O           30.365053       34.799638       19.853506
  F           29.022444       36.265420       18.528257
  N           28.011043       35.503041       20.682520
  S           27.325709       34.219447       20.047066
  O           27.339633       34.111489       18.585953
  O           26.003684       33.962322       20.621731
  C           28.406818       32.865594       20.705614
  F           29.298250       32.383294       19.798621
  F           27.658922       31.785485       21.089563
  F           29.092519       33.233392       21.825542
  O           31.331456        2.227216       10.565383
  S           30.299314        2.686089        9.653945
  O           30.255251        1.982417        8.380444
  F           30.860668        4.127475        9.240441
  N           28.920934        3.010562       10.351717
  S           27.840081        3.649666        9.379913
  O           28.300828        4.703661        8.472439
  O           26.610145        4.009506       10.088342
  C           27.381885        2.189597        8.334133
  F           27.954068        2.195623        7.100249
  F           26.032362        2.153774        8.108513
  F           27.669114        0.998621        8.933112
  O            7.323791       34.540196       17.567011
  S            5.940659       34.286992       17.207243
  O            5.645950       32.905013       16.857697
  F            5.838760       35.036445       15.795989
  N            4.890702       35.047297       18.108145
  S            3.387335       34.885923       17.623434
  O            3.132903       35.018706       16.186655
  O            2.460695       35.674261       18.438274
  C            3.045214       33.122045       18.078504
  F            3.088446       32.263749       17.024294
  F            1.789012       32.987568       18.605072
  F            3.883406       32.653135       19.046624
  O           33.790626       30.630944        5.122269
  S           34.594375       31.191656        6.192871
  O           35.002471       30.235884        7.212115
  F           33.514057       32.087921        6.963146
  N           35.670444       32.240712        5.709492
  S           36.447681       32.960024        6.892536
  O           35.648820       33.421027        8.030954
  O           37.373607       33.981524        6.399282
  C           37.530678       31.586282        7.505196
  F           37.083257       31.001502        8.648763
  F           38.785471       32.046896        7.799693
  F           37.725200       30.609946        6.573193
  O           29.016546       28.409915       10.700884
  S           27.738538       28.068006       10.103897
  O           26.754831       27.535313       11.035272
  F           28.130247       26.783081        9.232557
  N           27.231441       29.105849        9.027870
  S           25.908965       28.657857        8.271921
  O           25.837836       27.265017        7.822880
  O           25.524488       29.610118        7.228141
  C           24.638420       28.868071        9.604935
  F           24.257160       27.701075       10.190309
  F           23.488636       29.415177        9.102869
  F           25.037176       29.728146       10.585223
  O           36.147173       38.816446       24.065140
  S           35.409226       38.414378       25.248515
  O           35.757921       37.099063       25.765487
  F           33.945751       38.178144       24.643425
  N           35.194223       39.573178       26.298779
  S           34.264031       39.171916       27.521413
  O           33.041270       38.426611       27.211455
  O           34.026425       40.300659       28.423402
  C           35.376410       38.028951       28.465683
  F           35.087145       36.711450       28.291277
  F           35.273219       38.248236       29.812778
  F           36.696171       38.218746       28.179488
  O           29.737306       13.270705        6.032143
  S           28.437229       12.734638        5.672933
  O           28.461824       11.374697        5.154419
  F           28.086334       13.600786        4.372795
  N           27.285156       13.103769        6.687117
  S           25.840087       12.641937        6.218516
  O           25.486594       12.880492        4.816790
  O           24.796451       13.078295        7.148308
  C           25.951613       10.806278        6.449425
  F           26.142562       10.117023        5.292547
  F           24.792757       10.308917        6.981483
  F           26.926731       10.441983        7.330409
  O           33.600151       14.021269       14.852637
  S           32.779135       13.335859       15.833833
  O           32.339831       14.165705       16.946158
  F           33.851419       12.365277       16.520766
  N           31.724088       12.341154       15.209705
  S           30.928721       11.485517       16.285055
  O           31.707427       10.903136       17.381025
  O           30.023717       10.520415       15.657643
  C           29.819330       12.772158       17.026139
  F           30.236284       13.225500       18.238793
  F           28.563092       12.271692       17.237803
  F           29.635281       13.847279       16.207639
  O           23.735536       12.499281       40.299943
  S           24.004082       11.993193       38.966392
  O           25.386640       11.603753       38.730235
  F           23.858234       13.323866       38.087906
  N           22.876259       11.046747       38.396870
  S           23.100141       10.612253       36.886177
  O           23.518822       11.656708       35.947816
  O           21.989387        9.805255       36.377178
  C           24.516248        9.428205       37.053718
  F           25.718025        9.953641       36.693788
  F           24.340083        8.337514       36.245783
  F           24.632581        8.917043       38.312638
  O           15.199279        4.539762       19.341214
  S           14.912732        3.865460       18.088295
  O           15.492439        2.535813       17.966316
  F           15.786445        4.726180       17.058982
  N           13.433109        4.061869       17.574250
  S           13.162753        3.447646       16.135244
  O           14.178081        3.688572       15.106768
  O           11.803880        3.726401       15.666353
  C           13.179634        1.631559       16.505304
  F           14.334545        1.008213       16.148207
  F           12.189399        0.983106       15.818031
  F           12.933331        1.356660       17.818112
  O           34.177560        2.028663        9.795859
  S           34.447474        3.022898       10.818231
  O           35.535883        2.684727       11.723718
  F           33.154686        2.875861       11.751385
  N           34.367311        4.513579       10.304866
  S           34.517951        5.600534       11.452445
  O           33.774708        5.366470       12.693212
  O           34.354099        6.963205       10.942171
  C           36.320361        5.453776       11.858869
  F           36.572167        4.754200       12.997766
  F           36.878575        6.687301       12.059399
  F           37.047662        4.899944       10.846938
  O           28.800011       18.480048       11.654204
  S           29.625389       19.084145       12.683970
  O           29.408435       20.510253       12.879026
  F           31.071179       19.038695       11.997437
  N           29.799447       18.193346       13.975589
  S           30.818109       18.788860       15.038036
  O           32.079355       19.327341       14.522287
  O           31.009702       17.889929       16.177911
  C           29.848334       20.217689       15.711374
  F           30.232399       21.424987       15.216577
  F           30.000481       20.316126       17.068047
  F           28.505092       20.083705       15.517856
  O           16.361565        2.797429       14.475990
  S           15.689140        3.645191       13.508652
  O           14.613780        2.995426       12.773596
  F           16.825334        3.815087       12.393350
  N           15.437136        5.120796       14.009837
  S           14.835228        6.085143       12.901306
  O           15.427407        6.013055       11.563088
  O           14.696999        7.459749       13.386541
  C           13.100269        5.447065       12.766494
  F           12.885347        4.664430       11.675077
  F           12.207096        6.478247       12.655559
  F           12.702923        4.756373       13.873182
  O           21.221943        6.041150       22.252902
  S           21.527358        7.453755       22.386572
  O           21.826547        8.132865       21.134295
  F           22.955507        7.401516       23.108624
  N           20.613974        8.215317       23.424769
  S           21.042814        9.723041       23.677680
  O           22.473438        9.988749       23.849185
  O           20.220380       10.361926       24.707014
  C           20.525512       10.520695       22.086596
  F           21.555251       10.759065       21.230608
  F           19.953191       11.742759       22.315527
  F           19.573029        9.806331       21.421644
  O           15.228773       31.986292       14.272848
  S           14.576685       32.443547       15.486230
  O           13.137185       32.230166       15.521000
  F           14.693273       34.032620       15.328253
  N           15.387128       32.141188       16.806784
  S           14.745250       32.769226       18.116234
  O           14.264829       34.150433       18.025874
  O           15.573748       32.533728       19.300392
  C           13.258296       31.687257       18.347992
  F           12.092339       32.261644       17.947336
  F           13.077131       31.381437       19.669753
  F           13.378421       30.481550       17.722260
  O           22.969240       22.888797       25.904660
  S           22.504721       22.986401       27.276263
  O           23.346010       23.793672       28.147726
  F           22.772221       21.499718       27.807223
  N           20.941462       23.155316       27.416938
  S           20.420127       23.115142       28.916169
  O           20.979172       22.078900       29.788163
  O           18.959792       23.191795       28.991311
  C           21.019898       24.748685       29.554301
  F           22.134165       24.660872       30.329284
  F           20.073414       25.342312       30.344981
  F           21.260782       25.649457       28.559170
  O           10.177135        9.998106       36.272985
  S           10.394069        8.879391       37.171883
  O            9.198662        8.406930       37.855025
  F           11.221043        9.577642       38.351823
  N           11.390408        7.788834       36.615021
  S           11.739681        6.641904       37.656010
  O           12.032000        7.056478       39.030556
  O           12.728959        5.701939       37.125071
  C           10.148979        5.691491       37.698213
  F            9.385762        5.945004       38.795086
  F           10.385097        4.343529       37.723681
  F            9.382798        5.892474       36.588135
  O           12.357073       20.028978       25.995955
  S           12.313462       18.686491       26.545889
  O           10.992404       18.075247       26.555162
  F           12.580096       18.972070       28.098645
  N           13.531232       17.776082       26.121286
  S           13.559180       16.359673       26.838297
  O           13.282290       16.335830       28.276860
  O           14.748435       15.585477       26.477196
  C           12.151177       15.497245       25.996190
  F           11.015693       15.440085       26.742722
  F           12.470093       14.195198       25.719844
  F           11.841109       16.046628       24.787167
  O            6.896523       23.929883        1.022354
  S            6.925844       23.933720        2.473466
  O            7.752792       22.893847        3.068212
  F            5.441331       23.444694        2.820995
  N            7.001253       25.375096        3.112878
  S            6.885974       25.385667        4.696450
  O            5.857181       24.531292        5.295055
  O            6.877156       26.746612        5.236682
  C            8.530833       24.685619        5.186113
  F            8.483011       23.378913        5.560458
  F            9.045391       25.353692        6.264217
  F            9.473660       24.816677        4.209588
  Li          38.889592       38.508768       31.988032
  Li          28.032779       11.398113       15.289317
  Li           3.438260       16.836955        4.949948
  Li          13.381472        8.550577       25.144576
  Li          22.779569       16.329111       15.501894
  Li          30.590319       16.385390       11.418914
  Li          23.875902       15.653662       39.050271
  Li           2.020484       20.953356        9.515445
  Li          32.598866       37.054096       17.997271
  Li          21.516116       27.928837       31.140843
  Li          28.594159        8.347396       35.420054
  Li          24.012485        8.484229       25.237635
  Li          13.656183       36.174511        5.323708
  Li           4.660834       16.843572       37.566487
  Li          34.326719       33.920353        5.247747
  Li          11.653834       16.531631        6.066550
  Li           0.999417        3.843284       25.528506
  Li          30.629004       14.130552       21.300585
  Li          15.418176        5.047376       21.812744
  Li          22.055696       26.760672        8.299213
  Li           8.714676        3.812070       35.169779
  Li          27.256815        9.640368       38.234508
  Li          12.863038        1.883185       28.343280
  Li          34.908659       23.195190       16.189481
  Li          38.110067        1.204887       21.690931
  Li          28.319790       18.774294       23.031558
  Li           8.555079        9.953523       10.527536
  Li          18.680272       19.423167       30.828610
  Li          32.523520       23.184664        1.805990
  Li          10.062664       38.042388        7.242681
  Li          10.317358       20.320538       25.193692
  Li          35.186343       15.633002       40.300152
  Li          13.757754       11.200494        2.886401
  Li           7.158937       24.552899        7.072524
