19
Properties=species:S:1:pos:R:3 mapped_smiles="[C:1]([C:2]([n+:3]1[c:4]([H:14])[c:5]([H:15])[n:6]([C:7]([H:16])([H:17])[H:18])[c:8]1[H:19])([H:12])[H:13])([H:9])([H:10])[H:11]" name=EMIM pbc="F F F"
C       -2.75553727      -0.02327759       0.67727500
C       -1.90078481       0.41567134      -0.50451878
N       -0.49462245      -0.00571895      -0.35708995
C       -0.02219478      -1.29294543      -0.51945302
C        1.31684047      -1.26692904      -0.24370217
N        1.63517871       0.03638988       0.08613780
C        2.97050075       0.51768022       0.44460391
C        0.52373853       0.77912025       0.01145317
H       -3.79082918       0.30316406       0.51465261
H       -2.75695929      -1.11592681       0.78558280
H       -2.39489736       0.42311774       1.61339671
H       -1.89581118       1.50627939      -0.61497298
H       -2.26488531      -0.01104704      -1.44733083
H       -0.66813906      -2.11035621      -0.81879232
H        2.06169716      -2.05468791      -0.25940121
H        2.91877936       1.58820558       0.66349211
H        3.32612668      -0.02064649       1.33065580
H        3.65704552       0.34752856      -0.39277720
H        0.46023165       1.84335028       0.21360071
