        1156
  Built with Packmol                                             
  O           23.404576       23.110779       22.483254
  S           22.360538       22.100736       22.687703
  O           22.451151       20.998464       21.733248
  N           20.927604       22.755373       22.867565
  S           19.733806       21.713682       22.919796
  O           18.452350       22.349395       23.245590
  O           19.973882       20.497527       23.701800
  C           19.595461       21.210320       21.141092
  F           20.163745       22.116274       20.291798
  F           18.284084       21.130624       20.755553
  F           20.121956       19.984601       20.869401
  C           22.664572       21.417747       24.383843
  F           21.881557       21.989034       25.332377
  F           23.955094       21.656437       24.789033
  F           22.505891       20.063439       24.466127
  O           20.238900        7.870364        5.903703
  S           21.315675        8.586160        6.596662
  O           20.995524        8.865161        7.994468
  N           21.860533        9.808074        5.745629
  S           22.903773       10.724812        6.509986
  O           23.497670       11.742594        5.636026
  O           23.904788       10.024404        7.319676
  C           21.803214       11.657229        7.674318
  F           20.496529       11.657340        7.277362
  F           22.160303       12.977710        7.733629
  F           21.856571       11.215447        8.960934
  C           22.770707        7.438434        6.559136
  F           23.637234        7.715475        5.553363
  F           22.372118        6.141486        6.345474
  F           23.477067        7.410214        7.728049
  O           20.010933        4.289051       25.774431
  S           20.025424        5.751917       25.665749
  O           18.995596        6.386006       26.485251
  N           20.116580        6.234829       24.158206
  S           19.962638        7.800305       23.961764
  O           20.211923        8.216130       22.577081
  O           20.659834        8.643505       24.937023
  C           18.143066        8.035687       24.226435
  F           17.433288        6.880675       24.061618
  F           17.624078        8.909745       23.309171
  F           17.823088        8.561642       25.440678
  C           21.680069        6.275528       26.316735
  F           22.590841        6.490533       25.335171
  F           22.229808        5.299963       27.112134
  F           21.632346        7.393998       27.099580
  O           16.221981       26.682256       10.399663
  S           15.819687       25.295150       10.142573
  O           14.733258       24.854903       11.014384
  N           17.068811       24.324371       10.035443
  S           16.696177       22.787117        9.930590
  O           17.869593       21.944747        9.673862
  O           15.564471       22.456601        9.059843
  C           16.186398       22.403874       11.671150
  F           16.668246       23.309673       12.572456
  F           16.688757       21.195369       12.073458
  F           14.839763       22.305924       11.845448
  C           15.196455       25.280949        8.396956
  F           16.129027       24.862506        7.505657
  F           14.845936       26.544064        7.986739
  F           14.074937       24.521041        8.221348
  O           18.808989       23.935302        8.530386
  S           18.847217       24.159985        7.081229
  O           18.107347       25.353529        6.678433
  N           18.537258       22.835615        6.266263
  S           18.393318       23.048088        4.701931
  O           18.266620       21.779583        3.975815
  O           19.363045       23.956482        4.083345
  C           16.727164       23.851890        4.583039
  F           15.957118       23.633604        5.689556
  F           16.008292       23.335993        3.538159
  F           16.773919       25.193337        4.355588
  C           20.635424       24.428433        6.673734
  F           21.247767       23.308117        6.216428
  F           21.346488       24.799078        7.788907
  F           20.846795       25.425341        5.764011
  O            7.832753       12.139465       17.574292
  S            8.228120       10.736246       17.411012
  O            7.220788        9.947556       16.705710
  N            8.785916       10.115390       18.759196
  S            9.068409        8.556857       18.694592
  O            9.729781        8.058942       19.905817
  O            9.700463        8.067171       17.466212
  C            7.351315        7.860545       18.749688
  F            6.440958        8.743837       19.255696
  F            7.291434        6.770601       19.576209
  F            6.892799        7.420485       17.545731
  C            9.759539       10.776624       16.367496
  F           10.899682       10.703271       17.098175
  F            9.852292       11.956775       15.670905
  F            9.802902        9.794298       15.419205
  O           20.079323       20.782775       17.466026
  S           21.204624       21.723767       17.450844
  O           22.135376       21.468265       16.354204
  N           21.848672       21.903025       18.888644
  S           23.174420       22.771933       18.908463
  O           23.643528       23.043147       20.271834
  O           23.171568       23.970673       18.065129
  C           24.409046       21.591209       18.188818
  F           24.003739       20.289778       18.272508
  F           25.593109       21.643048       18.874389
  F           24.735635       21.852231       16.893208
  C           20.444497       23.392731       17.181463
  F           20.266873       24.085378       18.333805
  F           19.191519       23.282211       16.629711
  F           21.149378       24.183494       16.318946
  O           22.658716       22.401244        8.407460
  S           22.526752       21.460195        9.525052
  O           21.331313       20.627153        9.419389
  N           22.768888       22.163237       10.925518
  S           22.471768       21.241746       12.180736
  O           22.860218       21.877856       13.444409
  O           22.932367       19.853677       12.084227
  C           20.618352       21.210757       12.194564
  F           20.069190       22.250727       11.500387
  F           20.136239       21.336296       13.469909
  F           20.079859       20.052994       11.722323
  C           24.009383       20.353500        9.411773
  F           25.016227       20.731743       10.237845
  F           24.549562       20.378181        8.149157
  F           23.732522       19.038923        9.659433
  O           16.745510       17.372481        6.642443
  S           16.056462       16.349181        7.436214
  O           16.281010       16.506230        8.871176
  N           16.276437       14.893156        6.848165
  S           15.702480       13.726960        7.755667
  O           15.785898       12.417163        7.100019
  O           14.391086       13.969802        8.363510
  C           16.947352       13.670651        9.128046
  F           18.136943       14.246280        8.783771
  F           17.256043       12.377674        9.456100
  F           16.519483       14.240267       10.288160
  C           14.250691       16.606376        7.106302
  F           13.762710       15.772335        6.154750
  F           14.009864       17.873451        6.633944
  F           13.466959       16.481489        8.218178
  O            6.409991       16.298147       10.723306
  S            7.615923       16.601019        9.944849
  O            7.739798       15.764773        8.753401
  N            8.904454       16.707552       10.862749
  S           10.265643       16.861687       10.064998
  O           11.406440       17.115887       10.951770
  O           10.237255       17.764982        8.911113
  C           10.518927       15.143357        9.417318
  F            9.809250       14.207908       10.114666
  F           11.828754       14.763097        9.537546
  F           10.226234       15.000552        8.095448
  C            7.414885       18.359295        9.393624
  F            8.067836       19.241421       10.190310
  F            6.096599       18.742747        9.434698
  F            7.813986       18.579204        8.105813
  O           21.377386        3.222959        2.712655
  S           21.768908        3.103168        4.121328
  O           21.884196        1.713134        4.555743
  N           20.920437        4.061355        5.057371
  S           21.174794        3.854818        6.608385
  O           20.492669        4.864825        7.425080
  O           22.569555        3.653291        7.011160
  C           20.270553        2.268905        6.930142
  F           19.338855        1.990192        5.971362
  F           19.568756        2.335095        8.103940
  F           21.083032        1.184438        7.061320
  C           23.448269        3.880007        4.231185
  F           23.409232        5.166081        4.659776
  F           24.052379        3.928268        2.998578
  F           24.317810        3.195264        5.031888
  O           20.363775        6.131339        4.561994
  S           20.835914        6.747203        3.317085
  O           21.684119        5.851741        2.534208
  N           21.394586        8.212181        3.553566
  S           22.077458        8.865802        2.280984
  O           22.434077       10.272030        2.499488
  O           21.395275        8.650181        1.001791
  C           23.690069        7.954396        2.209393
  F           24.023311        7.379435        3.402443
  F           24.721865        8.807145        1.921442
  F           23.741717        6.994211        1.245662
  C           19.305365        7.095669        2.331291
  F           18.877438        8.376712        2.453794
  F           18.254629        6.321412        2.759170
  F           19.436467        6.820764        0.999622
  O           15.467701        8.203957       18.707924
  S           15.355733        9.639143       18.990244
  O           16.627886       10.341643       18.840846
  N           14.553255        9.920585       20.328534
  S           14.545511       11.440158       20.780016
  O           13.663173       11.676714       21.928023
  O           14.358878       12.428045       19.713504
  C           16.268252       11.647772       21.432214
  F           16.855854       10.458088       21.755288
  F           16.268036       12.374641       22.592543
  F           17.102104       12.319182       20.591205
  C           14.182415       10.299350       17.716176
  F           12.911459       10.412499       18.175599
  F           14.101754        9.456789       16.634425
  F           14.554288       11.509561       17.203145
  O            7.620354       16.128630       12.550889
  S            7.275638       17.101012       13.593791
  O            7.801397       16.728265       14.904835
  N            5.744075       17.508418       13.543444
  S            5.269750       18.422316       14.748768
  O            3.894414       18.903233       14.576810
  O            6.192472       19.487537       15.151370
  C            5.193490       17.200113       16.140423
  F            5.108638       15.909102       15.703284
  F            4.072780       17.395312       16.902399
  F            6.236182       17.286282       17.011496
  C            8.090789       18.683587       13.077277
  F            7.247990       19.525994       12.429789
  F            9.114668       18.446743       12.192870
  F            8.660161       19.370181       14.111929
  O           11.338846       21.423365       11.279097
  S           12.193459       20.567071       10.449401
  O           11.673624       19.207529       10.324427
  N           13.724480       20.698250       10.840511
  S           14.679675       19.672801       10.099527
  O           16.097513       19.935349       10.370089
  O           14.409309       19.454039        8.675713
  C           14.294013       18.091155       10.986071
  F           13.719880       18.298791       12.207652
  F           15.437167       17.382594       11.242661
  F           13.498128       17.240645       10.281371
  C           12.179484       21.343864        8.766488
  F           13.258415       22.133486        8.539320
  F           11.090644       22.166495        8.610586
  F           12.096781       20.439617        7.745901
  O           16.318297        2.062985       14.566260
  S           17.247999        3.110146       15.003421
  O           16.624465        4.072276       15.908799
  N           18.069161        3.719378       13.791509
  S           18.964157        4.971607       14.170856
  O           19.823213        5.400124       13.061444
  O           19.688077        4.884466       15.442291
  C           17.689076        6.305217       14.349607
  F           16.518852        6.003447       13.713594
  F           18.118089        7.472509       13.776827
  F           17.400553        6.626701       15.640654
  C           18.581016        2.223471       15.937591
  F           19.680870        1.976614       15.183547
  F           18.150458        0.990423       16.362812
  F           18.983389        2.874402       17.069177
  O           13.518064       16.916724       23.745388
  S           12.714936       17.640993       24.736560
  O           11.282190       17.566332       24.461125
  N           13.296998       19.086111       25.031581
  S           12.380133       19.983697       25.962546
  O           13.029688       21.244913       26.336464
  O           11.765468       19.305886       27.107517
  C           11.015168       20.458272       24.801535
  F           11.369639       20.324551       23.489488
  F           10.682521       21.778053       24.950618
  F            9.855323       19.773716       25.000391
  C           13.035030       16.783273       26.348284
  F           13.979358       17.402937       27.098924
  F           13.512263       15.511397       26.145351
  F           11.917743       16.629998       27.119179
  O            8.020439       14.563172       21.930186
  S            8.984888       14.334613       20.848707
  O            8.593285       13.234923       19.970339
  N           10.478518       14.308477       21.380297
  S           11.553828       13.894834       20.291441
  O           12.928871       14.038642       20.782334
  O           11.370366       14.467668       18.954877
  C           11.268220       12.068306       20.155347
  F           10.621783       11.554011       21.242830
  F           12.456189       11.390648       20.090455
  F           10.584063       11.695992       19.038784
  C            8.980856       15.896187       19.850073
  F            9.995394       16.735102       20.175856
  F            7.832191       16.617867       20.065355
  F            9.025770       15.684549       18.501262
  O            8.584109       13.112412        8.522910
  S            8.475719       13.351915        7.079688
  O            8.114296       14.732012        6.765191
  N            7.631992       12.223788        6.351914
  S            7.332327       12.514296        4.822599
  O            6.691192       11.376780        4.153716
  O            8.440998       13.073459        4.043892
  C            6.021830       13.820330        4.937372
  F            5.397922       13.834843        6.152085
  F            5.025824       13.595790        4.025093
  F            6.469114       15.078928        4.674181
  C           10.171080       13.033726        6.401229
  F           10.308357       11.787938        5.883187
  F           11.122942       13.121633        7.387551
  F           10.557210       13.931745        5.446993
  O            5.461789       10.708651       20.562650
  S            4.031192       10.907738       20.306215
  O            3.780966       11.692300       19.099546
  N            3.251206       11.360661       21.610317
  S            1.736856       11.758525       21.362427
  O            1.015392       12.015512       22.613765
  O            0.985711       10.895322       20.446533
  C            1.911374       13.413606       20.546001
  F            3.125042       13.992723       20.783980
  F            0.988993       14.299904       21.034254
  F            1.707276       13.392002       19.200164
  C            3.339778        9.208692       20.039781
  F            2.764464        8.691027       21.153441
  F            4.329740        8.319912       19.698248
  F            2.428578        9.140578       19.024313
  O           14.732818       20.620964       16.071902
  S           15.896143       19.757779       15.840414
  O           16.096666       19.453268       14.425754
  N           15.926341       18.522312       16.833847
  S           17.061480       17.460195       16.523418
  O           17.152799       16.422875       17.556873
  O           18.371256       18.005958       16.156227
  C           16.378169       16.605527       15.027113
  F           15.028796       16.770499       14.896822
  F           16.568082       15.251931       15.107180
  F           16.966976       16.979504       13.857990
  C           17.356763       20.735015       16.429819
  F           17.738402       20.408284       17.689501
  F           17.067573       22.076945       16.476670
  F           18.450261       20.630369       15.617778
  O           20.310145       13.373153       22.146865
  S           20.528207       14.763582       21.733155
  O           21.673552       14.910006       20.838199
  N           20.465979       15.765418       22.960613
  S           20.863801       17.258787       22.607644
  O           20.638875       18.176355       23.730086
  O           20.344630       17.781353       21.340526
  C           22.705306       17.128115       22.440066
  F           23.213585       16.023875       23.062406
  F           23.327646       18.193182       23.034224
  F           23.146202       17.130840       21.152043
  C           19.002310       15.241116       20.795392
  F           18.105964       15.919771       21.553805
  F           18.329206       14.130651       20.347733
  F           19.255878       15.983687       19.677182
  O           16.137589       13.745072        1.013205
  S           17.287756       13.359457        1.838079
  O           17.717787       14.428143        2.736513
  N           18.426560       12.663861        0.981648
  S           19.765643       12.379545        1.781037
  O           20.727236       11.595581        0.998006
  O           19.605197       11.872288        3.146741
  C           20.498719       14.077762        1.903355
  F           19.993807       14.937648        0.970264
  F           21.847510       14.046603        1.669924
  F           20.362427       14.653261        3.129579
  C           16.694362       11.942085        2.874775
  F           17.034181       10.733259        2.362466
  F           15.323230       11.927930        2.954755
  F           17.130145       11.988945        4.168606
  O           17.021990        7.492012        6.580656
  S           17.009088        7.916140        7.984917
  O           18.338720        8.267933        8.477382
  N           16.162999        6.931432        8.895237
  S           16.251742        7.236682       10.448281
  O           15.332475        6.405757       11.233718
  O           16.199167        8.650564       10.830870
  C           17.949348        6.614723       10.857673
  F           18.423733        5.730534        9.931299
  F           17.946301        5.926898       12.041560
  F           18.876046        7.598802       11.019594
  C           15.959150        9.443138        8.026228
  F           14.678972        9.195006        8.398754
  F           15.868481       10.014758        6.780583
  F           16.451425       10.425206        8.838206
  O           26.197702        4.233090       13.740310
  S           24.912736        4.749627       13.256520
  O           23.777001        4.225915       14.011523
  N           24.798562        4.673467       11.676848
  S           23.370314        5.054981       11.104522
  O           23.356876        5.125064        9.639153
  O           22.712524        6.206143       11.729291
  C           22.378125        3.549319       11.534456
  F           23.158728        2.453287       11.767636
  F           21.557605        3.191579       10.498372
  F           21.550927        3.717074       12.602632
  C           24.987066        6.581644       13.528530
  F           25.344221        7.267802       12.414605
  F           25.933723        6.903748       14.470171
  F           23.818992        7.114491       13.995198
  O            5.808189        4.114898        7.335878
  S            6.819872        3.074035        7.548247
  O            6.348067        2.002447        8.421917
  N            8.239726        3.687817        7.896795
  S            9.333619        2.616065        8.306363
  O           10.665663        3.210425        8.463829
  O            9.357070        1.384013        7.512828
  C            8.791841        2.161226       10.019809
  F            7.981944        3.105090       10.583890
  F            9.866390        2.060577       10.862373
  F            8.161622        0.957188       10.100534
  C            7.137590        2.349837        5.871824
  F            8.232997        2.874002        5.268058
  F            6.094967        2.608284        5.015820
  F            7.269960        0.990227        5.878018
  O            6.062666       18.790825       19.675904
  S            4.800325       19.464230       19.999971
  O            3.661691       18.548998       20.007924
  N            4.614346       20.806305       19.176291
  S            3.195496       21.491103       19.352118
  O            3.125554       22.804728       18.702583
  O            2.651844       21.506339       20.713151
  C            2.113330       20.381119       18.335677
  F            2.819591       19.643726       17.428789
  F            1.225598       21.110858       17.591290
  F            1.346609       19.529708       19.070959
  C            5.021773       20.119832       21.719548
  F            5.381593       21.427149       21.745042
  F            6.028559       19.455261       22.376304
  F            3.917161       19.971379       22.509417
  O           19.734927       12.250281       17.906927
  S           19.945649       10.812831       18.110234
  O           20.078353       10.081450       16.852588
  N           18.932027       10.207600       19.168754
  S           18.993112        8.629457       19.305621
  O           18.156910        8.131779       20.403566
  O           20.332413        8.034083       19.303454
  C           18.141713        8.083726       17.752045
  F           17.359179        9.062320       17.208911
  F           17.290554        7.040520       18.000946
  F           18.987610        7.630904       16.786223
  C           21.551969       10.677390       19.025217
  F           21.388036       10.540574       20.364473
  F           22.307887       11.813388       18.868071
  F           22.345606        9.653762       18.591136
  O           12.291331        3.015656       23.480017
  S           13.619223        3.524037       23.119113
  O           13.866313        4.867100       23.638080
  N           13.946183        3.295081       21.584552
  S           15.291491        3.974664       21.093315
  O           15.632760        3.604643       19.715266
  O           16.435351        3.870974       22.003828
  C           14.804391        5.761617       21.016945
  F           13.451767        5.936077       20.946437
  F           15.302225        6.356844       19.888863
  F           15.276036        6.509372       22.052229
  C           14.822705        2.367058       23.924612
  F           15.285565        1.412653       23.079584
  F           14.232601        1.679863       24.957153
  F           15.900332        2.996422       24.480240
  O           23.528582        8.315983       26.472967
  S           24.585235        7.624927       25.726022
  O           24.266465        7.478563       24.307867
  N           25.080767        6.315954       26.471163
  S           26.097493        5.432143       25.635610
  O           26.648934        4.322720       26.421417
  O           27.128451        6.163870       24.894056
  C           24.974335        4.642603       24.390040
  F           23.665389        4.654389       24.779298
  F           25.285867        3.320355       24.218848
  F           25.052968        5.191194       23.146551
  C           26.078857        8.713221       25.869229
  F           26.927420        8.320405       26.851490
  F           25.723837       10.000233       26.191971
  F           26.794825        8.816923       24.710465
  O           12.284310        3.587450       19.455059
  S           11.438543        4.465515       20.270951
  O           11.894454        4.555699       21.655946
  N            9.895448        4.168241       20.059559
  S            8.935365        4.963476       21.038764
  O            7.519130        4.779960       20.702609
  O            9.279687        6.367786       21.278674
  C            9.184988        4.051643       22.633302
  F            9.694155        2.797969       22.448771
  F            7.993530        3.863246       23.281094
  F            9.977262        4.704889       23.527154
  C           11.594080        6.146219       19.504895
  F           10.572839        6.440149       18.662356
  F           12.731170        6.237661       18.739869
  F           11.691749        7.157888       20.417632
  O           25.572977       20.258484        4.557766
  S           24.939500       21.566326        4.758402
  O           23.528754       21.457000        5.121781
  N           25.284895       22.579519        3.588640
  S           24.494070       23.951752        3.656252
  O           24.960275       24.914540        2.652214
  O           24.353970       24.549553        4.987118
  C           22.802285       23.439023        3.098337
  F           22.810939       22.263840        2.402728
  F           22.270236       24.361484        2.237703
  F           21.895506       23.328798        4.107793
  C           25.841525       22.334462        6.183926
  F           26.812355       23.196852        5.792810
  F           26.486144       21.380566        6.933026
  F           25.024346       22.989568        7.060941
  O            9.968356        7.171878        5.945104
  S           10.261245        8.210184        4.951053
  O            9.664794        9.499148        5.293132
  N           10.021590        7.698758        3.469429
  S           10.153830        8.822754        2.359408
  O           10.082667        8.275632        0.999999
  O           11.261080        9.768040        2.528613
  C            8.576972        9.769095        2.592341
  F            7.621556        9.046928        3.248584
  F            8.016905       10.091718        1.385304
  F            8.733375       10.955646        3.241213
  C           12.104296        8.406095        4.975222
  F           12.723480        7.707786        3.991262
  F           12.637062        7.928078        6.147510
  F           12.518674        9.705288        4.894669
  O           26.352699       16.353693       13.873749
  S           25.410240       15.832557       14.869836
  O           25.653567       16.368079       16.207075
  N           25.244680       14.259090       14.765002
  S           24.374411       13.613803       15.922257
  O           24.116361       12.187223       15.697133
  O           23.167250       14.350374       16.307517
  C           25.546338       13.681662       17.356928
  F           26.849035       13.808255       16.967113
  F           25.499967       12.521202       18.082106
  F           25.271897       14.671494       18.250412
  C           23.739571       16.412492       14.314551
  F           23.058771       15.471595       13.614249
  F           23.846051       17.487449       13.466182
  F           22.939317       16.838144       15.336566
  C           22.375562        6.955928       22.495851
  C           22.712893        7.602488       21.169552
  N           23.946804        8.391321       21.263923
  C           25.232443        7.933881       20.991377
  C           26.069091        8.988406       21.216093
  N           25.285442       10.053923       21.614926
  C           25.773603       11.383753       21.958654
  C           24.006424        9.674208       21.647000
  H           21.447180        6.379441       22.414191
  H           23.175610        6.288689       22.814309
  H           22.235671        7.709631       23.274351
  H           21.912845        8.269728       20.851094
  H           22.846188        6.841289       20.391601
  H           25.376654        6.916347       20.669466
  H           27.143509        9.117456       21.132003
  H           24.935985       12.032620       22.212954
  H           26.440253       11.300892       22.825206
  H           26.318931       11.802533       21.113763
  H           23.156836       10.295190       21.923190
  C           14.463384       13.722758       15.878176
  C           14.398170       12.993450       14.553503
  N           13.207000       13.385827       13.791366
  C           13.137781       14.411250       12.853221
  C           11.849628       14.431135       12.402923
  N           11.169146       13.428921       13.067010
  C            9.760589       13.098468       12.889048
  C           12.001390       12.812372       13.908637
  H           15.350931       13.412695       16.441222
  H           14.505073       14.800296       15.723666
  H           13.584469       13.503873       16.489158
  H           14.356481       11.915912       14.708014
  H           15.285568       13.212671       13.947807
  H           14.020068       14.987173       12.630327
  H           11.325413       15.039704       11.672894
  H            9.495397       12.250662       13.520076
  H            9.156113       13.965893       13.179535
  H            9.572171       12.851906       11.844871
  H           11.753567       11.982718       14.567392
  C           26.091359       11.057916       13.873088
  C           25.058226       11.316524       12.797607
  N           25.142077       10.312327       11.730715
  C           24.423862        9.121996       11.670075
  C           24.817000        8.496304       10.522707
  N           25.754325        9.308904        9.914759
  C           26.438564        9.022483        8.659897
  C           25.945818       10.398156       10.661727
  H           26.024977       11.820495       14.657285
  H           25.941806       10.077577       14.323942
  H           27.102354       11.087942       13.459945
  H           25.207779       12.296863       12.346753
  H           24.046519       11.290839       13.219730
  H           23.724784        8.883378       12.453753
  H           24.534669        7.560598       10.050643
  H           27.104967        9.845701        8.403926
  H           27.028896        8.106616        8.781943
  H           25.704735        8.884151        7.866827
  H           26.624435       11.219429       10.441070
  C           22.411699       17.894662       18.313922
  C           23.679323       17.105910       18.065126
  N           24.237311       16.590886       19.320952
  C           23.968721       15.347872       19.885909
  C           24.686656       15.291644       21.045179
  N           25.370424       16.486476       21.160667
  C           26.260978       16.851491       22.255463
  C           25.081360       17.263907       20.115133
  H           22.011933       18.282209       17.370050
  H           21.654283       17.269146       18.784825
  H           22.602909       18.745342       18.972316
  H           24.436739       17.731426       17.594222
  H           23.481826       16.257374       17.399256
  H           23.302959       14.668194       19.381330
  H           24.804470       14.532454       21.811893
  H           26.683072       17.840075       22.077032
  H           25.683802       16.869830       23.187520
  H           27.063097       16.118651       22.333895
  H           25.468511       18.263513       19.929116
  C            2.257717       12.932015       15.280713
  C            2.316953       12.503062       16.731020
  N            2.963653       11.192984       16.869494
  C            4.318959       10.969753       17.092455
  C            4.479867        9.615540       17.144564
  N            3.234337        9.048528       16.955748
  C            2.947175        7.619514       16.936876
  C            2.330479       10.015016       16.782419
  H            1.763261       13.905825       15.190669
  H            3.259504       13.007295       14.859457
  H            1.693965       12.212344       14.682419
  H            1.315167       12.427783       17.152276
  H            2.878844       13.232238       17.326824
  H            4.986538       11.809421       17.187837
  H            5.340468        8.973602       17.303882
  H            1.879173        7.457150       16.794367
  H            3.494715        7.161417       16.104682
  H            3.264373        7.170578       17.877324
  H            1.264807        9.877326       16.611878
  C           15.470184       16.993606        1.927949
  C           14.798694       16.715817        3.255666
  N           13.990708       15.492254        3.194397
  C           14.422444       14.210239        3.520653
  C           13.357416       13.383145        3.310582
  N           12.311170       14.168815        2.867194
  C           10.978503       13.690024        2.521280
  C           12.712749       15.439449        2.794231
  H           16.060930       17.914871        1.984435
  H           16.128481       16.171653        1.649132
  H           14.730421       17.117013        1.133455
  H           14.140397       17.537770        3.534483
  H           15.546070       16.598858        4.049485
  H           15.432588       14.061442        3.863097
  H           13.209116       12.314783        3.431871
  H           10.347594       14.528162        2.226696
  H           11.062834       12.990709        1.681014
  H           10.538292       13.183005        3.379036
  H           12.110239       16.288289        2.477763
  C           20.857103       16.575573        9.310624
  C           20.829583       18.086368        9.398033
  N           19.659060       18.635468        8.703724
  C           18.421952       18.910228        9.278590
  C           17.633441       19.394723        8.275587
  N           18.397376       19.406128        7.124599
  C           17.946022       19.850229        5.811605
  C           19.616116       18.936245        7.398432
  H           21.741051       16.179699        9.823282
  H           19.965802       16.146457        9.766849
  H           20.895647       16.244360        8.270185
  H           21.720884       18.515485        8.941808
  H           20.796862       18.412174       10.444542
  H           18.272138       18.726059       10.329037
  H           16.607464       19.747078        8.239304
  H           18.761669       19.774076        5.093121
  H           17.119775       19.206609        5.487154
  H           17.605640       20.883214        5.872293
  H           20.437278       18.825594        6.693344
  C           16.042194        4.463976        6.999133
  C           16.739123        4.225316        5.676925
  N           16.007849        4.855864        4.571779
  C           16.222464        6.138162        4.075744
  C           15.321593        6.313071        3.065625
  N           14.586424        5.147572        2.967454
  C           13.510826        4.901114        2.014959
  C           15.007697        4.280309        3.890213
  H           16.592343        3.979122        7.813475
  H           15.970696        5.530217        7.210599
  H           15.029411        4.054306        6.987284
  H           16.810621        3.159075        5.465459
  H           17.756655        4.633491        5.697446
  H           16.993399        6.752744        4.509043
  H           15.114416        7.134150        2.386650
  H           13.123927        3.890803        2.144878
  H           12.705003        5.621287        2.199894
  H           13.886749        5.022430        0.999792
  H           14.619541        3.277659        4.056734
  C            3.063964        9.291809       13.198837
  C            4.047758        9.695535       14.275895
  N            5.313420       10.154293       13.691652
  C            5.635633       11.468827       13.368268
  C            6.896522       11.436264       12.847118
  N            7.311939       10.118833       12.864570
  C            8.603089        9.630527       12.396179
  C            6.340541        9.355820       13.369839
  H            2.128141        8.941425       13.648689
  H            2.843952       10.132875       12.542406
  H            3.465768        8.481907       12.585394
  H            4.267770        8.854468       14.932326
  H            3.636224       10.504369       14.891384
  H            4.921462       12.252342       13.557647
  H            7.565020       12.202202       12.466921
  H            8.671544        8.554146       12.551155
  H            8.693364        9.846027       11.324913
  H            9.402618       10.131306       12.940764
  H            6.375095        8.277345       13.509121
  C            5.851199       26.306230       13.156359
  C            6.228316       25.305697       12.085090
  N            5.237734       24.226532       11.996481
  C            4.125915       24.203986       11.159971
  C            3.482394       23.026978       11.411032
  N            4.207153       22.364221       12.382617
  C            3.873896       21.063291       12.949558
  C            5.260000       23.106303       12.731799
  H            6.604119       27.099992       13.219232
  H            4.883619       26.757302       12.939511
  H            5.786959       25.825743       14.135494
  H            7.195895       24.854625       12.301939
  H            6.296804       25.795231       11.106282
  H            3.945725       25.031093       10.494218
  H            2.587012       22.566707       11.005394
  H            4.630628       20.770162       13.676697
  H            2.902001       21.136718       13.451782
  H            3.821840       20.320611       12.154374
  H            6.013025       22.847558       13.473220
  C            4.596699        6.271949       11.559583
  C            5.150006        6.560826       10.180705
  N            6.583232        6.253226       10.110398
  C            7.140766        5.040200        9.717812
  C            8.493714        5.193680        9.809866
  N            8.729784        6.481673       10.250145
  C           10.042416        7.069456       10.487645
  C            7.564811        7.105912       10.435253
  H            3.529183        6.516024       11.601243
  H            4.726143        5.220845       11.814778
  H            5.107614        6.868349       12.319170
  H            5.020562        7.611930        9.925510
  H            4.629239        5.963684        9.422666
  H            6.495390        4.230600        9.421437
  H            9.333193        4.536900        9.604888
  H            9.933194        8.105749       10.806185
  H           10.544634        6.500955       11.279343
  H           10.632769        7.026879        9.573167
  H            7.429870        8.129669       10.777905
  C           13.816715       20.959328       19.998744
  C           14.801213       20.537824       21.068322
  N           15.286222       19.172877       20.832975
  C           16.424799       18.822446       20.113780
  C           16.489170       17.459484       20.140082
  N           15.402421       17.013074       20.866853
  C           15.082357       15.618074       21.143321
  C           14.680793       18.060412       21.271125
  H           13.454618       21.975340       20.192407
  H           14.282647       20.934971       19.014359
  H           12.951520       20.292452       19.978448
  H           14.335281       20.562181       22.052707
  H           15.663995       21.214320       21.087338
  H           17.038869       19.594945       19.682545
  H           17.190875       16.739231       19.731493
  H           14.184911       15.557769       21.758344
  H           14.901766       15.103211       20.192268
  H           15.916045       15.148030       21.663535
  H           13.767979       18.024228       21.862023
  C            6.581139        5.180267        2.928966
  C            7.004113        6.633470        2.942851
  N            6.306156        7.377807        3.997611
  C            6.762557        7.576203        5.297125
  C            5.801622        8.308126        5.932256
  N            4.792413        8.538769        5.017487
  C            3.566903        9.284266        5.276831
  C            5.108688        7.962698        3.855931
  H            7.101213        4.639054        2.130523
  H            6.808532        4.703177        3.881530
  H            5.506788        5.086996        2.753546
  H            6.776720        7.110559        1.990287
  H            8.083855        6.719850        3.113428
  H            7.715383        7.170599        5.592773
  H            5.713085        8.707858        6.937480
  H            2.962082        9.331122        4.371681
  H            3.000573        8.768611        6.061414
  H            3.815212       10.292876        5.604928
  H            4.509703        7.972721        2.947737
  C           19.949158       17.912474       13.954789
  C           20.278855       16.819349       12.961171
  N           19.663751       15.545583       13.352154
  C           18.416271       15.081460       12.946218
  C           18.243591       13.870327       13.551065
  N           19.376058       13.623961       14.302944
  C           19.613012       12.436951       15.115201
  C           20.220717       14.649750       14.178817
  H           20.423125       18.854565       13.656930
  H           18.872421       18.065932       14.016336
  H           20.310387       17.655638       14.953412
  H           21.355592       16.665891       12.899623
  H           19.918960       17.085822       11.960237
  H           17.820447       15.677754       12.275974
  H           17.444413       13.136110       13.532653
  H           20.597077       12.494983       15.579471
  H           18.847911       12.388354       15.899075
  H           19.554675       11.547784       14.488641
  H           21.195459       14.742604       14.653113
  C           10.080419       10.396588        8.509770
  C           11.494541       10.133236        8.038808
  N           12.464308       10.378163        9.112708
  C           12.941659        9.432100       10.014650
  C           13.809117       10.091131       10.836657
  N           13.842893       11.408781       10.422948
  C           14.643172       12.466962       11.026857
  C           13.018234       11.567585        9.385731
  H            9.368102       10.220533        7.695823
  H            9.824923        9.746658        9.345840
  H            9.964214       11.431559        8.839967
  H           11.750037       10.783165        7.202737
  H           11.602880        9.094873        7.703450
  H           12.599980        8.413138        9.945576
  H           14.424093        9.778359       11.674559
  H           14.494745       13.400337       10.484564
  H           14.322840       12.600538       12.066927
  H           15.696271       12.189817       10.999034
  H           12.833151       12.493852        8.845849
  C           12.736246        8.909826       21.957312
  C           11.524889        8.603616       22.811566
  N           11.912209        7.933259       24.058283
  C           12.195554        8.558424       25.268773
  C           12.516272        7.564040       26.146748
  N           12.421756        6.368042       25.461799
  C           12.681057        5.047373       26.021708
  C           12.064126        6.609150       24.198839
  H           12.432098        9.399993       21.025577
  H           13.427219        9.563748       22.488013
  H           13.272344        7.994420       21.695913
  H           10.833916        7.949694       22.280865
  H           10.988255        9.525561       23.065417
  H           12.126217        9.630673       25.341399
  H           12.796927        7.558455       27.195224
  H           12.506461        4.282546       25.265496
  H           13.727838        5.001322       26.344708
  H           12.025132        4.876782       26.874504
  H           11.910227        5.865491       23.419746
  C            6.233557       14.590164       18.317526
  C            4.910247       14.712723       19.041907
  N            5.111097       14.888753       20.484950
  C            5.212533       16.104715       21.153940
  C            5.402176       15.801774       22.471043
  N            5.411110       14.424333       22.576291
  C            5.587231       13.669305       23.810720
  C            5.242642       13.887558       21.366088
  H            6.068943       14.448438       17.243414
  H            6.838066       15.484407       18.464486
  H            6.803592       13.733986       18.685929
  H            4.305738       13.818479       18.894947
  H            4.340782       15.570033       18.663585
  H            5.131706       17.024158       20.599060
  H            5.525686       16.406567       23.363831
  H            5.526798       12.601064       23.604545
  H            6.575234       13.899939       24.226481
  H            4.813336       13.949737       24.524193
  H            5.206014       12.825742       21.131770
  C            9.150174        1.743391       17.987886
  C            9.348405        2.155028       16.544917
  N           10.684023        2.726209       16.336166
  C           11.821167        2.025259       15.946332
  C           12.831864        2.940239       15.884647
  N           12.295997        4.165045       16.232783
  C           13.028772        5.423471       16.298393
  C           10.999166        4.017026       16.511027
  H            8.145988        1.328974       18.131998
  H            9.884160        0.993036       18.279316
  H            9.259627        2.599578       18.657709
  H            8.614419        2.905383       16.253486
  H            9.231502        1.292710       15.877726
  H           11.754616        0.966395       15.761463
  H           13.883112        2.871916       15.623286
  H           12.353411        6.232517       16.575221
  H           13.813845        5.334424       17.058610
  H           13.477890        5.635802       15.328955
  H           10.311729        4.803548       16.815185
  C           14.960486        9.225995       25.212704
  C           15.195795       10.010901       26.485281
  N           15.641237       11.377571       26.189485
  C           14.820346       12.492040       26.046319
  C           15.646516       13.542323       25.769103
  N           16.938059       13.052356       25.750453
  C           18.138997       13.836890       25.491312
  C           16.916861       11.741064       25.997769
  H           14.639068        8.205086       25.447936
  H           14.194855        9.702461       24.601566
  H           15.874616        9.161774       24.617773
  H           15.961426        9.534435       27.096420
  H           14.276424       10.066607       27.080304
  H           13.755335       12.385642       26.165620
  H           15.473106       14.598341       25.587842
  H           19.020814       13.200857       25.563155
  H           18.076554       14.251905       24.478364
  H           18.210275       14.646393       26.216724
  H           17.780233       11.080919       26.047740
  C           19.635837       11.021463       23.634474
  C           21.115522       10.951239       23.323827
  N           21.907177       11.615802       24.365623
  C           22.452192       11.006569       25.491764
  C           23.094655       11.990608       26.185600
  N           22.930837       13.164543       25.475993
  C           23.457656       14.468266       25.860267
  C           22.203712       12.922650       24.383346
  H           19.056267       10.531486       22.843955
  H           19.417254       10.533037       24.583348
  H           19.299327       12.058579       23.704135
  H           21.334105       11.439666       22.374953
  H           21.445497        9.908171       23.249491
  H           22.310881        9.949904       25.644375
  H           23.665575       11.999593       27.108676
  H           23.199073       15.210475       25.105575
  H           23.011734       14.759536       26.818660
  H           24.540683       14.409464       25.961241
  H           21.910331       13.651228       23.630484
  C            7.305062       24.004163        9.307819
  C            8.016943       22.686741        9.528101
  N            8.168089       22.399644       10.959335
  C            7.279846       21.672050       11.745485
  C            7.804924       21.660866       13.005115
  N            8.988375       22.372187       12.960779
  C            9.877627       22.610092       14.091058
  C            9.189052       22.819201       11.719405
  H            7.208616       24.211272        8.236043
  H            6.310502       23.984201        9.751837
  H            7.859682       24.829280        9.760897
  H            9.011503       22.706704        9.084084
  H            7.458402       21.863937        9.066120
  H            6.392850       21.256316       11.298046
  H            7.481556       21.219797       13.942660
  H           10.748487       23.178242       13.765316
  H            9.335612       23.186489       14.850127
  H           10.197241       21.657344       14.511437
  H           10.035729       23.410211       11.376558
  C           11.821644       26.198589        9.506709
  C           10.949929       24.975029        9.322553
  N           10.554500       24.813332        7.918562
  C           11.231913       24.066959        6.959167
  C           10.523988       24.201438        5.800177
  N            9.442425       25.016067        6.074223
  C            8.422373       25.422392        5.115425
  C            9.480159       25.384235        7.356459
  H           12.100478       26.313433       10.560256
  H           12.729839       26.118502        8.910497
  H           11.294817       27.104562        9.197896
  H           10.041734       25.055115        9.918765
  H           11.482201       24.070302        9.639660
  H           12.127663       23.536326        7.234593
  H           10.653458       23.804430        4.798318
  H            7.675566       26.043914        5.608669
  H            8.900875       26.001050        4.316431
  H            7.944302       24.538938        4.694051
  H            8.762116       26.024858        7.864117
  C           20.667047       19.688169        3.391783
  C           21.345341       19.485227        2.054012
  N           22.331426       18.400323        2.119740
  C           22.093406       17.060465        1.829007
  C           23.276151       16.409780        2.029566
  N           24.199432       17.355214        2.432316
  C           25.596377       17.092468        2.755438
  C           23.610530       18.551440        2.490089
  H           19.941779       20.507471        3.331522
  H           20.147608       18.782373        3.702294
  H           21.395685       19.940698        4.165744
  H           21.864780       20.391023        1.743502
  H           20.608212       19.237928        1.280783
  H           21.110848       16.752143        1.513862
  H           23.582963       15.373845        1.925619
  H           26.098180       18.023245        3.018395
  H           25.637034       16.407912        3.610967
  H           26.090818       16.638663        1.897423
  H           24.083095       19.488982        2.775393
  C           19.038493        5.200379       18.334963
  C           17.927916        4.551194       19.132508
  N           18.392092        4.167098       20.470682
  C           18.310973        4.948044       21.619570
  C           18.864851        4.208836       22.624204
  N           19.266068        3.006973       22.073704
  C           19.909958        1.916510       22.795641
  C           18.981090        3.001062       20.769920
  H           18.681695        5.472108       17.335084
  H           19.398095        6.098917       18.834977
  H           19.884652        4.519485       18.216223
  H           17.568314        3.652655       18.632494
  H           17.079765        5.237367       19.242992
  H           17.864480        5.926589       21.565770
  H           19.018382        4.388940       23.683492
  H           20.093542        1.081327       22.120314
  H           20.867001        2.274398       23.193368
  H           19.269419        1.592126       23.614839
  H           19.178954        2.191125       20.070955
  C           21.764374        2.542732       18.743628
  C           22.028003        3.597021       19.797133
  N           23.454810        3.663428       20.134046
  C           24.397500        4.496165       19.538828
  C           25.587996        4.222217       20.147246
  N           25.348836        3.241042       21.089900
  C           26.348404        2.649950       21.971021
  C           24.056688        2.908254       21.063324
  H           20.694827        2.496260       18.509512
  H           22.313915        2.764801       17.829631
  H           22.075293        1.554975       19.092002
  H           21.478461        3.374951       20.711130
  H           21.708482        4.584626       19.443660
  H           24.090082        5.176082       18.762293
  H           26.592257        4.616950       20.030004
  H           25.878152        1.919886       22.629177
  H           27.104754        2.146296       21.357451
  H           26.818679        3.431565       22.566437
  H           23.570003        2.164516       21.690771
  C            8.659896       18.631608        5.378203
  C            9.317583       19.711643        6.209990
  N           10.476073       20.283824        5.514138
  C           10.460700       21.397764        4.680290
  C           11.743234       21.567919        4.245948
  N           12.504520       20.567084        4.818028
  C           13.935862       20.373109        4.621732
  C           11.722292       19.794557        5.574614
  H            7.803778       18.205805        5.913604
  H            8.313467       19.034373        4.427168
  H            9.360281       17.820520        5.165370
  H            9.664012       19.308878        7.161025
  H            8.607968       20.519510        6.424926
  H            9.535198       21.922117        4.512065
  H           12.218757       22.295286        3.595629
  H           14.279910       19.523933        5.211503
  H           14.121504       20.172274        3.559940
  H           14.471441       21.271804        4.925215
  H           12.037143       18.926705        6.150287
  C           18.453997       16.310787        4.758136
  C           19.092428       15.660423        5.966578
  N           19.452642       14.265244        5.688331
  C           20.680937       13.817469        5.211686
  C           20.573057       12.462410        5.090532
  N           19.297246       12.116587        5.492046
  C           18.754827       10.763873        5.521126
  C           18.630222       13.218285        5.841962
  H           18.180359       17.347859        4.982866
  H           19.137963       16.304613        3.910284
  H           17.545890       15.780274        4.462166
  H           18.408463       15.666597        6.814430
  H           19.999674       16.200877        6.261899
  H           21.469223       14.527473        5.026485
  H           21.261178       11.686375        4.770597
  H           17.734644       10.780941        5.903533
  H           18.749402       10.364784        4.499902
  H           19.375211       10.135009        6.158506
  H           17.603976       13.263438        6.200402
  C           13.677288       17.604737       18.847338
  C           13.230403       17.966333       17.447181
  N           11.917217       17.385462       17.144145
  C           10.685428       18.002509       17.339973
  C            9.739890       17.105811       16.934521
  N           10.406943       15.975168       16.504189
  C            9.779193       14.765849       15.986137
  C           11.721507       16.157005       16.645454
  H           14.663058       18.035354       19.056446
  H           12.968556       17.976249       19.586512
  H           13.751705       16.521283       18.966875
  H           13.939135       17.594821       16.708007
  H           13.163412       19.054761       17.332129
  H           10.649990       19.001934       17.739588
  H            8.655808       17.135831       16.890179
  H           10.543600       14.044406       15.698903
  H            9.151343       14.330564       16.772605
  H            9.165605       15.014436       15.121086
  H           12.501625       15.442434       16.391476
  C           25.743612        9.964385       18.451380
  C           25.526642        9.663249       16.984022
  N           24.295254        8.891801       16.778472
  C           23.034385        9.418980       16.516380
  C           22.189586        8.352829       16.406218
  N           22.944121        7.211930       16.599936
  C           22.438366        5.845155       16.567714
  C           24.212692        7.555241       16.832242
  H           26.671143       10.530885       18.591605
  H           24.914046       10.545259       18.852760
  H           25.821734        9.042622       19.032714
  H           26.356208        9.082375       16.582642
  H           25.454986       10.592062       16.405600
  H           22.910642       10.486052       16.439926
  H           21.127411        8.262531       16.201940
  H           23.255924        5.142749       16.727481
  H           21.698991        5.724467       17.368313
  H           21.971001        5.651089       15.603086
  H           25.040077        6.874416       17.020950
  C           11.577762       12.298403       23.627998
  C           11.420258       13.333357       24.721142
  N           10.435285       14.354326       24.345443
  C            9.074636       14.323512       24.635418
  C            8.542610       15.457746       24.094158
  N            9.577601       16.148387       23.493901
  C            9.453942       17.420099       22.792219
  C           10.713052       15.464032       23.647232
  H           12.323286       11.548887       23.916649
  H           10.631388       11.794898       23.434197
  H           11.910117       12.761225       22.695777
  H           12.366632       13.836862       24.914942
  H           11.092312       12.861746       25.655184
  H            8.669461       13.496318       25.193434
  H            7.539151       15.870679       24.068531
  H           10.432115       17.746890       22.440528
  H            8.789294       17.283708       21.930918
  H            9.036444       18.169069       23.464036
  H           11.695508       15.756094       23.282294
  C           21.170872        9.090114       10.626542
  C           21.118673       10.229440       11.621585
  N           20.012912       10.053373       12.570265
  C           20.088797        9.416600       13.805239
  C           18.835704        9.474292       14.342763
  N           18.032242       10.137931       13.435827
  C           16.612770       10.420953       13.608735
  C           18.756728       10.473564       12.366448
  H           21.993501        9.239539        9.918126
  H           21.316165        8.138662       11.136768
  H           20.242133        9.027169       10.054542
  H           20.973379       11.180891       11.111359
  H           22.055569       10.290759       12.188035
  H           21.029806        9.010672       14.136184
  H           18.410352        9.126514       15.278832
  H           16.237796       10.977635       12.750365
  H           16.071181        9.470696       13.685498
  H           16.464280       11.003382       14.517210
  H           18.399017       11.004699       11.486881
  C            7.554336        5.656118       13.753798
  C            8.659793        5.736440       14.784533
  N            9.971808        5.493517       14.173547
  C           10.828532        6.464267       13.663578
  C           11.921492        5.798616       13.189398
  N           11.711263        4.452574       13.418472
  C           12.631857        3.378560       13.066480
  C           10.524831        4.284307       14.005980
  H            6.580047        5.828507       14.224907
  H            7.701736        6.399528       12.971292
  H            7.529849        4.670929       13.282098
  H            8.512393        4.993031       15.567039
  H            8.675179        6.725307       15.258141
  H           10.543606        7.501728       13.711450
  H           12.843192        6.122444       12.716424
  H           12.223346        2.419928       13.384981
  H           12.762780        3.369803       11.977911
  H           13.592692        3.547303       13.551168
  H           10.084362        3.336536       14.308333
  C           24.731892       14.389687       10.420042
  C           24.120891       14.254711        9.041870
  N           24.873840       15.032044        8.050648
  C           25.924186       14.561082        7.268747
  C           26.331706       15.613752        6.501731
  N           25.530303       16.690910        6.827283
  C           25.622300       18.023403        6.243418
  C           24.660272       16.325189        7.770890
  H           24.154167       13.813651       11.151694
  H           25.759955       14.029442       10.423218
  H           24.739596       15.433001       10.744290
  H           23.092829       14.614956        9.038694
  H           24.110832       13.205015        8.724950
  H           26.237240       13.534942        7.362733
  H           27.100997       15.729715        5.744866
  H           24.852783       18.668331        6.666751
  H           26.609137       18.441630        6.474587
  H           25.493899       17.958907        5.163625
  H           23.901773       16.957440        8.227658
  C            4.982115        6.869550       21.937994
  C            4.818010        7.821572       23.103165
  N            6.078853        7.982653       23.836669
  C            7.041764        8.959608       23.602657
  C            8.043441        8.732111       24.501205
  N            7.674187        7.635360       25.255717
  C            8.456885        7.046334       26.335223
  C            6.488583        7.189060       24.835884
  H            4.031519        6.750049       21.406029
  H            5.730675        7.240737       21.239010
  H            5.301597        5.882628       22.280948
  H            4.069451        7.450385       23.802149
  H            4.491740        8.808105       22.752878
  H            6.880072        9.689264       22.827248
  H            8.986426        9.228804       24.706570
  H            7.915127        6.207905       26.772068
  H            9.407330        6.685519       25.924534
  H            8.648383        7.798029       27.100000
  H            5.941216        6.338948       25.237628
