15
TFSI
O        1.140000     2.360000     1.090000
S        0.700000     1.160000     0.370000
O        0.110000     1.470000    -0.930000
N       -0.130000     0.180000     1.300000
S       -0.780000    -1.050000     0.540000
O       -1.400000    -2.010000     1.460000
O        0.060000    -1.700000    -0.470000
C       -2.190000    -0.240000    -0.350000
F       -2.540000     0.960000     0.200000
F       -3.320000    -1.010000    -0.280000
F       -1.970000    -0.050000    -1.680000
C        2.240000     0.170000     0.080000
F        2.420000    -0.810000     1.000000
F        3.360000     0.960000     0.170000
F        2.300000    -0.400000    -1.160000
