        4267
  Built with Packmol                                             
  O           35.718220       16.004801       13.613442
  C           36.749827       16.651299       13.695462
  O           37.577714       16.931998       12.650277
  C           38.756522       17.470067       13.196167
  C           38.288335       18.047584       14.494887
  O           37.227697       17.179021       14.865354
  H           39.475290       16.655243       13.338764
  H           39.194036       18.224595       12.542127
  H           37.893443       19.059984       14.376108
  H           39.067675       18.055415       15.264995
  O           14.052900       28.931349       10.205753
  C           14.800027       28.664562       11.132859
  O           15.359712       29.582146       11.970351
  C           16.332487       28.904840       12.726702
  C           15.839451       27.491986       12.714113
  O           15.191731       27.392265       11.454306
  H           17.299514       29.012048       12.222455
  H           16.407681       29.307364       13.737059
  H           15.108638       27.304464       13.505156
  H           16.647751       26.756383       12.791826
  O           28.691733       13.466668       38.701114
  C           29.107963       12.330465       38.543967
  O           29.197334       11.693391       37.342822
  C           29.481592       10.343810       37.616550
  C           30.158395       10.410106       38.949570
  O           29.535995       11.527145       39.567180
  H           28.535541        9.792277       37.657775
  H           30.120366        9.904471       36.850097
  H           31.229828       10.606414       38.857401
  H           30.010574        9.505322       39.549583
  O           11.782205       12.717766       17.132377
  C           11.683269       13.897354       17.428492
  O           10.506979       14.576075       17.539298
  C           10.831116       15.940074       17.646728
  C           12.213123       15.909476       18.219894
  O           12.754512       14.712249       17.681243
  H           10.806728       16.381658       16.644078
  H           10.128563       16.470371       18.289927
  H           12.204386       15.836207       19.310561
  H           12.817913       16.773882       17.924037
  O           27.612875       12.899955        9.521588
  C           26.676437       13.646925        9.754006
  O           26.764666       15.004305        9.833600
  C           25.542229       15.463073       10.355404
  C           24.585441       14.382267        9.960670
  O           25.396258       13.216605        9.980871
  H           25.642048       15.552898       11.443002
  H           25.266073       16.431941        9.938832
  H           24.196255       14.526831        8.949415
  H           23.745181       14.280056       10.656382
  O            0.999724       25.266151       11.848719
  C            1.391949       25.451563       10.708244
  O            1.811120       26.650352       10.214484
  C            1.937784       26.496881        8.822542
  C            2.182365       25.028377        8.670634
  O            1.453806       24.470706        9.754518
  H            0.999495       26.812705        8.352682
  H            2.757683       27.095691        8.425437
  H            3.239306       24.773629        8.784556
  H            1.819208       24.630926        7.716354
  O           14.622551        5.961178       23.976694
  C           13.417665        5.972263       23.784268
  O           12.612463        4.873885       23.826883
  C           11.362998        5.263337       23.312818
  C           11.335869        6.734853       23.583564
  O           12.704063        7.101929       23.484057
  H           11.344255        5.037640       22.240620
  H           10.544641        4.737391       23.804931
  H           10.979848        6.960867       24.592110
  H           10.733002        7.292044       22.857899
  O            5.463080        8.568810        5.474682
  C            5.742195        9.710229        5.145807
  O            4.856384       10.744328        5.095021
  C            5.505920       11.806697        4.441895
  C            6.951597       11.527490        4.709220
  O            6.996320       10.109305        4.767115
  H            5.263495       11.756741        3.374358
  H            5.191724       12.773078        4.836722
  H            7.277694       11.932760        5.670686
  H            7.612549       11.902593        3.919954
  O           37.905271       12.140027       28.287640
  C           38.101519       12.055837       29.489014
  O           38.317255       10.891309       30.162759
  C           38.249419       11.194367       31.534129
  C           38.617516       12.644329       31.573030
  O           38.120135       13.132150       30.335596
  H           37.224090       11.016541       31.877608
  H           38.935099       10.578121       32.116008
  H           39.700068       12.793024       31.604220
  H           38.158367       13.179648       32.411550
  O           20.285043        6.234002       17.308502
  C           21.056150        5.308385       17.502219
  O           22.404118        5.436985       17.654025
  C           22.945992        4.140386       17.606029
  C           21.802780        3.285223       18.054539
  O           20.668449        3.997383       17.582606
  H           23.243815        3.927722       16.573084
  H           23.814800        4.043840       18.257451
  H           21.747606        3.210738       19.143763
  H           21.830244        2.276482       17.627703
  O            3.050775       38.179322       25.283131
  C            4.203441       37.825015       25.469480
  O            5.235941       38.661636       25.770494
  C            6.417805       37.907952       25.659779
  C            5.945283       36.509870       25.907752
  O            4.623492       36.524032       25.388842
  H            6.817816       38.038102       24.647874
  H            7.166459       38.226052       26.385609
  H            5.905811       36.272232       26.974040
  H            6.553069       35.755923       25.395249
  O            6.077619       28.531178       30.527208
  C            5.008717       28.863401       31.012981
  O            4.827456       29.932283       31.838350
  C            3.529373       29.823861       32.367808
  C            2.810649       29.025706       31.325799
  O            3.833881       28.192147       30.801608
  H            3.589583       29.296890       33.326754
  H            3.076227       30.803042       32.523900
  H            2.419356       29.655673       30.522660
  H            1.994102       28.422082       31.737367
  O           25.068117        8.735870       36.526561
  C           24.637141        9.716781       35.942631
  O           23.373306        9.834906       35.447284
  C           23.355496       10.989358       34.644773
  C           24.456394       11.817675       35.228994
  O           25.377607       10.841304       35.692316
  H           23.561710       10.694566       33.609653
  H           22.390318       11.494314       34.688932
  H           24.114968       12.415268       36.078294
  H           24.930653       12.477900       34.494365
  O            9.098577       12.750424       26.922849
  C            9.590758       11.914696       27.663265
  O            9.710979       10.589437       27.370286
  C           10.090970        9.941310       28.558831
  C           10.775997       11.028233       29.326122
  O           10.084482       12.196391       28.909213
  H            9.185887        9.583834       29.062753
  H           10.750270        9.095679       28.362032
  H           11.830198       11.122866       29.052803
  H           10.697713       10.900039       30.411451
  O           10.485226        5.479260       12.383859
  C           10.580253        6.690526       12.496575
  O            9.644565        7.494195       13.075543
  C           10.009641        8.820680       12.785272
  C           11.488530        8.721260       12.579354
  O           11.647752        7.417097       12.040460
  H            9.483577        9.133454       11.876245
  H            9.750376        9.496191       13.600728
  H           12.040066        8.786365       13.520932
  H           11.875200        9.475600       11.885122
  O           38.689215       30.943032       35.960199
  C           38.077493       31.004486       37.014201
  O           37.929017       32.132890       37.763374
  C           37.386670       31.734856       38.998092
  C           36.671004       30.466532       38.653742
  O           37.459529       29.932172       37.600515
  H           38.210964       31.569245       39.700952
  H           36.714862       32.491321       39.404213
  H           35.660209       30.652828       38.281471
  H           36.619638       29.763364       39.492441
  O            1.745424       19.989853        4.470773
  C            2.536929       19.356879        5.150305
  O            3.394178       18.412847        4.670173
  C            3.943853       17.755580        5.785054
  C            3.837004       18.786107        6.864867
  O            2.664592       19.502546        6.506027
  H            3.337847       16.867419        5.996778
  H            4.975142       17.451942        5.604097
  H            4.687467       19.472919        6.863379
  H            3.731605       18.349052        7.864054
  O           27.385876       17.787437       33.152895
  C           27.084445       18.525767       34.076425
  O           27.486309       19.821866       34.199850
  C           27.139984       20.234863       35.498538
  C           25.991702       19.337293       35.837970
  O           26.301493       18.144014       35.133189
  H           28.002414       20.072616       36.154884
  H           26.862370       21.288796       35.524167
  H           25.040110       19.730151       35.470361
  H           25.906385       19.139918       36.912337
  O            1.465458        1.073701       30.257540
  C            2.579669        1.465728       30.563726
  O            3.306784        0.999026       31.617335
  C            4.402682        1.866097       31.773199
  C            4.579737        2.429037       30.398008
  O            3.254170        2.448210       29.888984
  H            4.133858        2.635494       32.505771
  H            5.289266        1.334557       32.119514
  H            5.193976        1.783052       29.765226
  H            5.006746        3.438074       30.400793
  O           24.419557       11.186721       19.410739
  C           24.249200       11.999681       18.516885
  O           23.048800       12.553404       18.186686
  C           23.233351       13.232357       16.969286
  C           24.695174       13.552089       16.984946
  O           25.251381       12.462814       17.706551
  H           22.964890       12.554787       16.150917
  H           22.614912       14.128278       16.911339
  H           24.907402       14.479862       17.522716
  H           25.130372       13.612564       15.981230
  O           18.203576       21.363633        1.185067
  C           18.185158       22.540106        1.508287
  O           19.168581       23.440201        1.226668
  C           18.888820       24.597869        1.974089
  C           17.407052       24.518823        2.167779
  O           17.166773       23.120088        2.216816
  H           19.435589       24.538461        2.921936
  H           19.188554       25.501267        1.442552
  H           16.858707       24.944090        1.323109
  H           17.070403       25.000920        3.092306
  O           36.016767       19.496707       19.398091
  C           34.805294       19.551627       19.533061
  O           34.003570       18.484770       19.808114
  C           32.676334       18.916817       19.638168
  C           32.772632       20.390481       19.879914
  O           34.076494       20.704890       19.413340
  H           32.364744       18.683202       18.613846
  H           32.001316       18.426148       20.339663
  H           32.706288       20.638018       20.942610
  H           32.017523       20.964032       19.330959
  O            0.998163       32.935953       22.690034
  C            1.568028       34.004102       22.537675
  O            2.779507       34.160874       21.934069
  C            3.190412       35.482845       22.180339
  C            1.894010       36.201107       22.387329
  O            1.066891       35.203647       22.968317
  H            3.816957       35.488775       23.079397
  H            3.759014       35.889147       21.343614
  H            1.448804       36.526234       21.443356
  H            1.985470       37.064245       23.056005
  O           23.046376       29.387039        4.763749
  C           23.959200       30.175833        4.946659
  O           24.776356       30.181472        6.036991
  C           25.517069       31.375559        5.985987
  C           25.527386       31.698511        4.524825
  O           24.282929       31.182215        4.076087
  H           24.990919       32.134719        6.575684
  H           26.522048       31.242192        6.386899
  H           26.335784       31.186531        3.996270
  H           25.593740       32.773779        4.325083
  O           12.814065       21.612027       32.633887
  C           11.987605       22.460176       32.928011
  O           10.695271       22.200969       33.273384
  C           10.022109       23.435315       33.291917
  C           11.123786       24.411035       33.563357
  O           12.246411       23.804937       32.939690
  H            9.560211       23.592445       32.310663
  H            9.249498       23.459913       34.060661
  H           11.325374       24.516585       34.632572
  H           10.932691       25.401509       33.135639
  O           12.891426       25.647055       38.849321
  C           13.363494       26.758890       38.676481
  O           12.633398       27.894419       38.491723
  C           13.532508       28.896501       38.086096
  C           14.831743       28.432158       38.665556
  O           14.707540       27.017919       38.632382
  H           13.551435       28.921807       36.990696
  H           13.238558       29.876326       38.462973
  H           14.957560       28.753506       39.702815
  H           15.700469       28.757104       38.082267
  O           17.259417       12.472680        3.294124
  C           16.300390       13.225691        3.340405
  O           15.819722       13.805049        4.476144
  C           14.582544       14.386035        4.146076
  C           14.716867       14.643220        2.678012
  O           15.560591       13.585949        2.245685
  H           13.789898       13.663392        4.370573
  H           14.404986       15.301096        4.711440
  H           15.208529       15.597384        2.471031
  H           13.757810       14.612568        2.149079
  O           37.301673        3.810548       17.435603
  C           36.127665        3.479229       17.464497
  O           35.074234        4.334377       17.339584
  C           33.917097        3.608207       17.672464
  C           34.310448        2.197092       17.366802
  O           35.703902        2.188878       17.640332
  H           33.707660        3.759871       18.737374
  H           33.056664        3.933414       17.087318
  H           34.153434        1.945178       16.314715
  H           33.790033        1.463173       17.992127
  O           26.946926        7.278074       33.817642
  C           27.330345        8.433059       33.906515
  O           26.554343        9.530303       33.681843
  C           27.417386       10.639671       33.642341
  C           28.578194       10.187822       34.471653
  O           28.611259        8.787727       34.236622
  H           27.698263       10.822728       32.599030
  H           26.942160       11.532864       34.048380
  H           28.415537       10.365313       35.537974
  H           29.524297       10.651983       34.171749
  O            2.782563       11.258241       36.971963
  C            3.473337       10.256976       36.876057
  O            2.993186        8.983607       36.808325
  C            4.095388        8.123174       36.956332
  C            5.238340        8.960864       36.475357
  O            4.842070       10.276290       36.834836
  H            4.189676        7.860602       38.016080
  H            3.975221        7.212064       36.369870
  H            5.357313        8.909815       35.389889
  H            6.189726        8.700438       36.952371
  O           19.653360       29.854633       32.844952
  C           18.741277       29.745038       33.648066
  O           17.500070       29.264974       33.355584
  C           16.685800       29.532076       34.470357
  C           17.671411       29.596105       35.594578
  O           18.838587       30.104986       34.965817
  H           16.178779       30.489775       34.307136
  H           15.939557       28.751335       34.618902
  H           17.891539       28.607211       36.005225
  H           17.350945       30.257809       36.406951
  O           16.945867        3.530579        3.116290
  C           16.267574        4.409022        3.623398
  O           15.446411        4.236450        4.696948
  C           14.670708        5.403801        4.809539
  C           15.533946        6.440609        4.162046
  O           16.229926        5.700642        3.169746
  H           13.730771        5.248372        4.268004
  H           14.450468        5.640785        5.850612
  H           16.258553        6.867062        4.860676
  H           14.957240        7.252227        3.704678
  O           16.528869       15.652421       31.449508
  C           16.269579       14.783839       32.266353
  O           16.882085       13.568422       32.331148
  C           16.138176       12.783663       33.229953
  C           15.492373       13.807470       34.109815
  O           15.307962       14.909441       33.233315
  H           15.404204       12.204519       32.658308
  H           16.776802       12.100671       33.790470
  H           16.144466       14.112964       34.932281
  H           14.531956       13.474873       34.519056
  O           23.458753       31.371048        2.045069
  C           24.026451       30.292697        1.983598
  O           25.293098       30.053560        2.425207
  C           25.656617       28.780046        1.952856
  C           24.335494       28.096824        1.787809
  O           23.465284       29.165442        1.445187
  H           26.183469       28.901791        0.999701
  H           26.305478       28.260277        2.658066
  H           23.989036       27.641190        2.719134
  H           24.342830       27.336848        0.998580
  O           30.279491       28.224124       10.769947
  C           30.027812       27.073103       11.087296
  O           29.566326       26.685785       12.309431
  C           29.642584       25.282310       12.348707
  C           29.561594       24.904139       10.903084
  O           30.188078       25.999708       10.252049
  H           30.600992       25.000204       12.799007
  H           28.830029       24.852198       12.934589
  H           28.528041       24.827987       10.555279
  H           30.085584       23.969123       10.675748
  O            2.585461        6.719722        1.063027
  C            3.651489        6.541814        1.629449
  O            4.098843        7.267610        2.692320
  C            5.447988        6.921233        2.884492
  C            5.523943        5.544224        2.303564
  O            4.559443        5.584655        1.262072
  H            6.070695        7.638029        2.337373
  H            5.721131        6.940281        3.939731
  H            5.234622        4.776607        3.026099
  H            6.514838        5.303310        1.902832
  O           24.650427       19.725322        8.487780
  C           25.313810       20.431099        7.745686
  O           24.906962       20.873479        6.522831
  C           26.033472       21.435107        5.896212
  C           26.888864       21.844062        7.053994
  O           26.577330       20.870133        8.039393
  H           26.508461       20.662571        5.281010
  H           25.761587       22.280747        5.264176
  H           26.620282       22.833020        7.434553
  H           27.959387       21.828752        6.821087
  O           28.452040       20.745490       31.267762
  C           29.330198       20.441203       32.058425
  O           29.251816       19.415573       32.952036
  C           30.341785       19.554243       33.829440
  C           31.341070       20.301297       33.003158
  O           30.523627       21.104499       32.164555
  H           30.012280       20.128433       34.702728
  H           30.718704       18.585465       34.157922
  H           31.941027       19.633033       32.379881
  H           32.010208       20.927209       33.603981
  O           23.130262       26.332230       38.010576
  C           21.957397       26.082409       38.236139
  O           21.487766       24.880570       38.673894
  C           20.086266       24.927612       38.570521
  C           19.794787       26.392462       38.663553
  O           20.939912       26.983245       38.066675
  H           19.796385       24.506954       37.601028
  H           19.605519       24.359146       39.366906
  H           19.719450       26.731689       39.700013
  H           18.885774       26.682556       38.124999
  O           13.555443        8.717095       15.346757
  C           14.124038        7.637478       15.341569
  O           13.508460        6.434353       15.167916
  C           14.457104        5.442436       15.473326
  C           15.757721        6.131593       15.203404
  O           15.472844        7.485461       15.523538
  H           14.343382        5.167770       16.528090
  H           14.323471        4.554832       14.854617
  H           16.045792        6.068475       14.150773
  H           16.578674        5.753104       15.822502
  O            5.619789       28.860417       38.397905
  C            6.839975       28.854118       38.400579
  O            7.613498       28.328825       39.391704
  C            8.934574       28.738966       39.139427
  C            8.936434       28.963507       37.659907
  O            7.607198       29.391146       37.401344
  H            9.123652       29.661412       39.700000
  H            9.655699       27.979875       39.443170
  H            9.127453       28.041620       37.104358
  H            9.655877       29.727237       37.344283
  O            4.771355       26.017808       10.592288
  C            4.733209       27.197531       10.282936
  O            5.813819       27.940628        9.913220
  C            5.395319       29.282645        9.882420
  C            3.924499       29.166813        9.632076
  O            3.587154       27.947209       10.276564
  H            5.616869       29.736714       10.854858
  H            5.904891       29.844363        9.099280
  H            3.694201       29.081279        8.566878
  H            3.351744       29.998898       10.056442
  O           19.978826       37.915079       31.765967
  C           18.926531       37.661394       31.202747
  O           18.045685       36.698919       31.595623
  C           17.104987       36.558989       30.559955
  C           17.141173       37.898800       29.894375
  O           18.488034       38.309368       30.078758
  H           17.439761       35.755218       29.894539
  H           16.115036       36.316207       30.946679
  H           16.480096       38.618945       30.383628
  H           16.894126       37.853203       28.827891
  O           19.556823       13.244621       14.373122
  C           18.743086       14.058939       13.968622
  O           18.749087       14.612956       12.723781
  C           17.817248       15.665800       12.740893
  C           16.871107       15.255099       13.825117
  O           17.707554       14.541466       14.723830
  H           18.347901       16.593819       12.981906
  H           17.318940       15.776776       11.777631
  H           16.090580       14.583935       13.457263
  H           16.402006       16.107603       14.328785
  O           39.699531       36.590997       10.885494
  C           39.384147       36.701829        9.711974
  O           39.578110       37.818716        8.955970
  C           38.864190       37.630833        7.759259
  C           38.806797       36.140513        7.636573
  O           38.774298       35.710910        8.989712
  H           37.869987       38.076832        7.875649
  H           39.369689       38.096062        6.912776
  H           39.699889       35.732837        7.155754
  H           37.918982       35.789670        7.098804
  O           31.589156       39.248623       30.552637
  C           30.423803       38.948554       30.350619
  O           29.814121       37.828275       30.830059
  C           28.572573       37.728090       30.177663
  C           28.272782       39.148157       29.813061
  O           29.563058       39.699997       29.595668
  H           28.695611       37.089641       29.295537
  H           27.810483       37.298719       30.828324
  H           27.788168       39.688938       30.630193
  H           27.657864       39.237174       28.910591
  O            5.128825       22.552205       11.959334
  C            4.425275       22.215780       11.020859
  O            4.490099       21.008175       10.393096
  C            3.705891       21.109735        9.230426
  C            2.726335       22.184809        9.582685
  O            3.471410       23.020226       10.456493
  H            4.357321       21.397702        8.397592
  H            3.215544       20.165446        8.992982
  H            1.859735       21.791336       10.120442
  H            2.379901       22.750100        8.710372
  O            1.145782        7.253439       23.380394
  C            1.434825        8.313584       22.849878
  O            1.260856        8.595539       21.528199
  C            1.937016        9.802238       21.275644
  C            1.939069       10.469136       22.615286
  O            1.991005        9.372804       23.516374
  H            2.948863        9.565748       20.927594
  H            1.426688       10.397662       20.518322
  H            1.020286       11.033519       22.795036
  H            2.800058       11.130649       22.762244
  O           17.404787       13.236044       30.210289
  C           18.451444       12.634999       30.030974
  O           18.550303       11.295763       29.800165
  C           19.913431       10.964406       29.896014
  C           20.593771       12.254378       29.560588
  O           19.684837       13.229900       30.049255
  H           20.119563       10.640475       30.922404
  H           20.181661       10.164070       29.206076
  H           20.712700       12.388230       28.482191
  H           21.571059       12.360738       30.044421
  O           29.487589       25.317457       27.118695
  C           30.410705       24.521333       27.172955
  O           30.299584       23.183537       26.939386
  C           31.512572       22.596730       27.341153
  C           32.488485       23.722851       27.203874
  O           31.697179       24.866433       27.491371
  H           31.407903       22.261741       28.379289
  H           31.773805       21.744582       26.713377
  H           32.878331       23.807320       26.186089
  H           33.328177       23.648631       27.903808
  O           21.709111        3.868285       33.928985
  C           21.885436        3.154315       32.955303
  O           20.985622        2.975770       31.947804
  C           21.456490        1.907319       31.164352
  C           22.931954        1.937930       31.412284
  O           23.020563        2.417292       32.746061
  H           20.993382        0.982385       31.526192
  H           21.211513        2.043364       30.110797
  H           23.446023        2.637856       30.748328
  H           23.400758        0.951494       31.324727
  O            9.077933       37.514260       33.094265
  C            8.621765       37.773283       31.992577
  O            8.269514       36.846105       31.058306
  C            8.031068       37.543313       29.860748
  C            7.654854       38.909901       30.340643
  O            8.410282       39.046732       31.535301
  H            8.956287       37.549158       29.273521
  H            7.237506       37.077581       29.276067
  H            6.591271       38.982386       30.582589
  H            7.914332       39.700015       29.627277
  O           21.685820        8.096513       29.137022
  C           21.579224        6.951077       29.543855
  O           20.504347        6.143384       29.322786
  C           20.660838        5.019119       30.152629
  C           22.143116        4.953012       30.347262
  O           22.531780        6.317936       30.297028
  H           20.126318        5.204546       31.091141
  H           20.264645        4.117117       29.685807
  H           22.640368        4.412014       29.537903
  H           22.428949        4.505330       31.305584
  O           16.474448       15.911687       25.556690
  C           16.377870       16.453952       24.467873
  O           17.091208       17.546965       24.076632
  C           16.516630       18.001401       22.876445
  C           15.889134       16.762881       22.318129
  O           15.520545       16.039889       23.483472
  H           15.774515       18.770840       23.117543
  H           17.266389       18.422889       22.206586
  H           16.599922       16.166549       21.740055
  H           15.009609       16.971101       21.698790
  O           21.507882       34.491182       16.725542
  C           20.487773       33.859506       16.503588
  O           20.394847       32.500206       16.519951
  C           19.140268       32.170115       15.977576
  C           18.325019       33.393698       16.256169
  O           19.285812       34.437453       16.192513
  H           19.264169       31.988860       14.903939
  H           18.721927       31.279175       16.446315
  H           17.885568       33.375904       17.256952
  H           17.530481       33.555012       15.519156
  O           11.069368       27.388856       32.202032
  C           10.694553       28.525372       31.963818
  O            9.843929       29.244959       32.748187
  C            9.473997       30.383995       32.011405
  C           10.630172       30.567163       31.079145
  O           11.073111       29.236465       30.856325
  H            8.541693       30.164156       31.479070
  H            9.323187       31.248867       32.657743
  H           11.441076       31.139498       31.537259
  H           10.345991       31.042744       30.133860
  O           12.346239       39.700704       37.479341
  C           11.227847       39.382511       37.109404
  O           10.943745       38.775176       35.923221
  C            9.546104       38.807010       35.772602
  C            9.060694       38.879287       37.186304
  O           10.091083       39.605882       37.839727
  H            9.280377       39.700083       35.195794
  H            9.177800       37.921685       35.253901
  H            8.978541       37.889924       37.643919
  H            8.101018       39.399107       37.282783
  O           17.202167       38.306698        7.394486
  C           18.025391       37.426291        7.204522
  O           18.276396       36.842212        5.999346
  C           19.094820       35.726412        6.248890
  C           19.781474       36.096431        7.525993
  O           18.810139       36.890799        8.190889
  H           18.453438       34.845102        6.362122
  H           19.799798       35.555407        5.435094
  H           20.675761       36.700543        7.351928
  H           20.050425       35.225921        8.134580
  O           38.974894       28.767863       28.185676
  C           38.800518       29.867039       27.685371
  O           39.700009       30.889913       27.720687
  C           39.031082       32.037989       27.260732
  C           37.951950       31.469380       26.393808
  O           37.658515       30.230358       27.022552
  H           38.628502       32.574529       28.127308
  H           39.699982       32.698321       26.708433
  H           38.300812       31.277328       25.375765
  H           37.058601       32.102414       26.352620
  O           34.272666       29.393540        6.313900
  C           35.125769       28.533298        6.459151
  O           35.974650       28.450447        7.521760
  C           36.947173       27.489424        7.193532
  C           36.235727       26.620488        6.204494
  O           35.356732       27.528866        5.557334
  H           37.807294       28.004516        6.751071
  H           37.274631       26.933143        8.072066
  H           35.644808       25.840882        6.692376
  H           36.912659       26.155443        5.479238
  O           16.219523       11.484907       17.776610
  C           17.060072       11.364523       18.652900
  O           17.437735       10.180674       19.211893
  C           18.227786       10.491911       20.332630
  C           18.775475       11.841525       19.989150
  O           17.737860       12.416746       19.208716
  H           17.579965       10.518848       21.216091
  H           19.014832        9.753463       20.486748
  H           19.681798       11.775007       19.381570
  H           18.980799       12.456971       20.872082
  O           26.132191        9.460970       17.471594
  C           27.164896       10.110491       17.494866
  O           28.413735        9.593375       17.322839
  C           29.326143       10.607196       17.664566
  C           28.542276       11.857610       17.416740
  O           27.210640       11.461980       17.711398
  H           29.596321       10.488379       18.719927
  H           30.228604       10.557483       17.054982
  H           28.595433       12.176012       16.372329
  H           28.849240       12.689319       18.060582
  O           36.667297        4.157086        6.760164
  C           35.461197        3.974418        6.730949
  O           34.528038        4.957937        6.594913
  C           33.276595        4.372401        6.855942
  C           33.505384        2.933068        6.516271
  O           34.873879        2.742449        6.844124
  H           33.041324        4.516805        7.916458
  H           32.489293        4.820161        6.249174
  H           33.364413        2.734672        5.450548
  H           32.871469        2.251408        7.094190
  O           35.527641       19.041661       28.538971
  C           36.283996       19.986806       28.692357
  O           35.889082       21.270297       28.923211
  C           37.031986       22.078916       28.792801
  C           38.147150       21.132080       29.107935
  O           37.648875       19.886976       28.640989
  H           37.079028       22.448085       27.762072
  H           37.004090       22.927067       29.477170
  H           38.333664       21.059591       30.182624
  H           39.082746       21.388819       28.598773
  O           31.140783       25.091958       19.470434
  C           30.386653       25.807533       18.831575
  O           29.331871       25.363188       18.092256
  C           28.881469       26.453428       17.327002
  C           29.315736       27.632455       18.139840
  O           30.506369       27.169920       18.760368
  H           29.375583       26.417859       16.349512
  H           27.801008       26.425025       17.184534
  H           28.587900       27.888533       18.914229
  H           29.517821       28.520557       17.530794
  O           22.003645       11.878216        2.253145
  C           22.762435       12.789583        2.540458
  O           24.102783       12.793057        2.295399
  C           24.642050       13.890248        2.989994
  C           23.477367       14.824300        3.092270
  O           22.367318       13.941755        3.166463
  H           24.984554       13.544020        3.971685
  H           25.480896       14.332902        2.452504
  H           23.373857       15.451364        2.202846
  H           23.520408       15.465794        3.979476
  O            2.776702        5.045333       35.279518
  C            3.038399        5.585826       34.217311
  O            4.053354        6.474430       34.025347
  C            3.863675        7.042394       32.753130
  C            3.093494        5.984056       32.027773
  O            2.331776        5.379336       33.062519
  H            3.289167        7.968288       32.869577
  H            4.813716        7.267768       32.268229
  H            3.748867        5.230911       31.582511
  H            2.435778        6.390314       31.251330
  O           21.546381       31.822039       26.387131
  C           21.713698       32.032195       25.196862
  O           21.504144       33.229341       24.580804
  C           21.566458       32.992496       23.196202
  C           22.432009       31.775121       23.105537
  O           22.128526       31.078894       24.305439
  H           20.550039       32.807911       22.830523
  H           21.991491       33.842534       22.662083
  H           23.495861       32.026497       23.100016
  H           22.206367       31.154234       22.231418
  O           12.923772       31.495684        9.897227
  C           13.385941       32.509677       10.394337
  O           14.559406       32.573451       11.083910
  C           14.606440       33.839589       11.693651
  C           13.735026       34.669715       10.804308
  O           12.774920       33.733923       10.336237
  H           14.200561       33.750730       12.707685
  H           15.625957       34.221988       11.747081
  H           14.284816       35.072306        9.949527
  H           13.244444       35.493529       11.334553
  O           26.849118       38.569104        6.347648
  C           26.310264       38.265025        5.295949
  O           26.279491       37.007515        4.772192
  C           25.792777       37.124247        3.458197
  C           24.979756       38.379312        3.514829
  O           25.665546       39.159200        4.483368
  H           26.648069       37.213437        2.778917
  H           25.196037       36.257772        3.172500
  H           23.960884       38.193757        3.864784
  H           24.938192       38.905487        2.554667
  O            5.512015        3.089228       16.201388
  C            6.553430        3.642460       16.514900
  O            7.418097        4.227725       15.639448
  C            8.590373        4.521547       16.358155
  C            8.094707        4.652267       17.764081
  O            7.006103        3.741238       17.803632
  H            9.287986        3.684784       16.239560
  H            9.062576        5.436421       15.999645
  H            7.724002        5.658264       17.977499
  H            8.850338        4.383385       18.510556
  O           25.120128       22.075514       10.489976
  C           25.009937       23.018172        9.723063
  O           23.930795       23.249493        8.923975
  C           24.296186       24.271536        8.030097
  C           25.364434       25.003377        8.780200
  O           25.972487       23.976919        9.550431
  H           24.675589       23.809055        7.111911
  H           23.449308       24.913071        7.785696
  H           24.950187       25.756396        9.455746
  H           26.099856       25.478956        8.121809
  O           21.878774        1.360638        8.199060
  C           20.689039        1.567552        8.374035
  O           20.173668        2.375251        9.342856
  C           18.785870        2.150384        9.366383
  C           18.501726        1.678115        7.975116
  O           19.697504        1.000027        7.618870
  H           18.572436        1.381857       10.117856
  H           18.236063        3.058344        9.615022
  H           18.344922        2.509371        7.282710
  H           17.642724        1.000125        7.920831
  O           23.763845       29.360157       28.102065
  C           23.357963       29.117212       29.226848
  O           24.016872       28.355405       30.144502
  C           23.117440       28.116897       31.198654
  C           22.186208       29.285114       31.112186
  O           22.165108       29.572922       29.721747
  H           22.608388       27.164844       31.010607
  H           23.629420       28.066721       32.159829
  H           22.568960       30.156700       31.649623
  H           21.177824       29.055760       31.474206
  O           16.808430       23.982859        5.916954
  C           17.306702       25.019975        6.323174
  O           18.616163       25.365476        6.173030
  C           18.836263       26.493649        6.982895
  C           17.475290       27.109349        7.072705
  O           16.611836       25.984050        7.003778
  H           19.203704       26.153597        7.957703
  H           19.567384       27.169894        6.539437
  H           17.266216       27.769892        6.227145
  H           17.316407       27.661175        8.005842
  O            9.812620        6.964847       27.970097
  C            8.662972        7.345727       28.118889
  O            8.067839        8.328984       27.387025
  C            6.851608        8.632754       28.023896
  C            6.526314        7.361632       28.743503
  O            7.807913        6.838794       29.060905
  H            7.020648        9.468469       28.712304
  H            6.080159        8.909866       27.305164
  H            6.000769        6.649091       28.102343
  H            5.939366        7.524134       29.654318
  O           31.883726       29.360946        1.077203
  C           31.562803       28.274598        1.530806
  O           31.921498       27.072367        0.999223
  C           31.157447       26.091344        1.655668
  C           30.849925       26.734442        2.971440
  O           30.779238       28.114069        2.642452
  H           30.254432       25.902720        1.064157
  H           31.712621       25.160162        1.770482
  H           31.650804       26.583534        3.700013
  H           29.903329       26.391793        3.403929
  O           10.952221        7.620417       30.385688
  C           11.963073        6.979947       30.147196
  O           13.144518        7.516486       29.731367
  C           13.962913        6.444073       29.334806
  C           13.424391        5.300625       30.136005
  O           12.045174        5.617177       30.254980
  H           13.836396        6.292275       28.256914
  H           15.013701        6.640188       29.549009
  H           13.865800        5.254629       31.135026
  H           13.556803        4.332040       29.641221
  O            5.308602       15.529581       22.518281
  C            5.956116       15.500159       23.552090
  O            6.560446       14.389896       24.060716
  C            6.980718       14.714014       25.362799
  C            7.145193       16.200044       25.299075
  O            6.156022       16.589537       24.357568
  H            6.195365       14.412556       26.065112
  H            7.909604       14.206156       25.623090
  H            8.129210       16.488959       24.920606
  H            6.974433       16.690851       26.263674
  O           25.176881       36.131935       34.531186
  C           24.749768       34.993554       34.428403
  O           25.520939       33.870220       34.424557
  C           24.687767       32.804245       34.041643
  C           23.329506       33.279499       34.452327
  O           23.422255       34.687140       34.289405
  H           24.771386       32.671922       32.957024
  H           24.968848       31.875979       34.539453
  H           23.115543       33.056560       35.500906
  H           22.526834       32.870807       33.828478
  O           29.300517       14.511629       13.415356
  C           29.282588       13.386948       12.942417
  O           30.008725       12.333666       13.411375
  C           29.900131       11.306003       12.457846
  C           28.598859       11.612301       11.785334
  O           28.530125       13.028965       11.855611
  H           30.750594       11.380082       11.770732
  H           29.901595       10.321630       12.926363
  H           27.747626       11.188145       12.324309
  H           28.566504       11.275534       10.743201
  O           25.101958        6.733763       11.438051
  C           26.068963        6.783992       12.180533
  O           26.868981        5.725152       12.489448
  C           27.698156        6.135127       13.548452
  C           27.753085        7.620167       13.372273
  O           26.479641        7.922506       12.821337
  H           27.222524        5.845929       14.492401
  H           28.684564        5.674924       13.487514
  H           28.527901        7.921635       12.662500
  H           27.903003        8.157339       14.315390
  O           19.535115       16.311771        4.146988
  C           20.181625       17.303972        4.441032
  O           21.501864       17.485184        4.156901
  C           21.920771       18.622160        4.870274
  C           20.651316       19.396866        5.036753
  O           19.664942       18.378277        5.115128
  H           22.336788       18.294900        5.829821
  H           22.678524       19.183102        4.322866
  H           20.439775       20.030426        4.171391
  H           20.642326       20.013360        5.942487
  O            6.458349        8.824946        8.405550
  C            5.492143        8.996973        9.130637
  O            5.409798        8.588141       10.427817
  C            4.070077        8.750180       10.822773
  C            3.584021        9.834778        9.913488
  O            4.340718        9.621424        8.730910
  H            3.543789        7.803131       10.658400
  H            3.992041        9.026623       11.874433
  H            3.808947       10.830581       10.304365
  H            2.510976        9.766985        9.702588
  O            1.053518        9.916221       17.078956
  C            1.508757       11.034337       16.901543
  O            2.586013       11.320864       16.117948
  C            2.933471       12.658917       16.374828
  C            1.640978       13.255585       16.836183
  O            0.999980       12.165468       17.482221
  H            3.700554       12.673241       17.157310
  H            3.321035       13.151548       15.482858
  H            1.020017       13.588085       16.000210
  H            1.779742       14.089708       17.532950
  C           18.593727       21.899519       25.270958
  O           18.956312       21.187051       26.460379
  C           20.292992       21.091170       26.651672
  O           21.157619       21.539144       25.913133
  O           20.508081       20.403750       27.804794
  C           21.880007       20.228297       28.120288
  H           18.980341       21.390408       24.381781
  H           17.502013       21.926104       25.207297
  H           18.959966       22.927061       25.310051
  H           21.945970       19.659179       29.057387
  H           22.385269       19.647035       27.335594
  H           22.367755       21.193256       28.264352
  C           10.216444       13.992758       30.586647
  O            9.839327       12.856798       31.374796
  C            8.699079       13.038519       32.081416
  O            8.017462       14.052866       32.095511
  O            8.446364       11.899179       32.778939
  C            7.271199       11.960717       33.571215
  H           10.404124       14.862105       31.225640
  H           11.140390       13.748541       30.054406
  H            9.446095       14.222880       29.848334
  H            7.161634       11.002380       34.096558
  H            7.357203       12.753295       34.328395
  H            6.392420       12.115941       32.943956
  C           37.283512       21.109099       16.779102
  O           36.443248       21.990955       17.534142
  C           35.171492       22.057291       17.075082
  O           34.724678       21.455578       16.109681
  O           34.477981       22.915068       17.869916
  C           33.120996       23.078704       17.490030
  H           37.365017       21.446925       15.740578
  H           38.281743       21.121144       17.226304
  H           36.902968       20.086744       16.817528
  H           32.654492       23.790969       18.183898
  H           33.051908       23.499545       16.476610
  H           32.586748       22.129889       17.554277
  C            1.793633       15.681634       33.991310
  O            2.889350       15.423395       34.878168
  C            3.946253       16.248666       34.692738
  O            4.023245       17.140221       33.860331
  O            4.911166       15.909747       35.588604
  C            6.083955       16.702454       35.495425
  H            2.097184       15.537914       32.948956
  H            0.993625       14.971454       34.219854
  H            1.407696       16.691950       34.139001
  H            6.798788       16.346619       36.249610
  H            6.550455       16.586836       34.506531
  H            5.857029       17.749918       35.698211
  C            8.198149       25.447955       38.237827
  O            9.471031       26.106267       38.251899
  C           10.263816       25.781386       37.203832
  O            9.982396       25.001746       36.305688
  O           11.431186       26.467459       37.326517
  C           12.359469       26.210380       36.285027
  H            8.323706       24.361413       38.292248
  H            7.633691       25.775512       39.115718
  H            7.632504       25.721019       37.345088
  H           13.264628       26.801447       36.479261
  H           12.644752       25.148578       36.275608
  H           11.948083       26.511023       35.320571
  C           21.101524       11.540404       10.389251
  O           22.133640       10.633784       10.797391
  C           23.361999       10.962154       10.332841
  O           23.628054       11.920370        9.622391
  O           24.248578       10.037177       10.787696
  C           25.583178       10.265468       10.364342
  H           21.007309       11.553844        9.298268
  H           20.154643       11.194758       10.814156
  H           21.299777       12.545483       10.766095
  H           26.214330        9.465729       10.774786
  H           25.653108       10.222102        9.267926
  H           25.947030       11.222861       10.739589
  C           20.618959       10.188443       36.149323
  O           21.198003        9.663508       34.948094
  C           21.085807        8.319507       34.831585
  O           20.561462        7.570159       35.642288
  O           21.663858        7.945808       33.659107
  C           21.617618        6.548804       33.416740
  H           21.118593        9.775927       37.032214
  H           20.756107       11.273703       36.149508
  H           19.548450        9.978181       36.185371
  H           22.113632        6.351019       32.456921
  H           22.164876        6.003037       34.198754
  H           20.584836        6.203869       33.352091
  C           37.088357       14.057111       25.778074
  O           36.371166       15.178219       26.309632
  C           35.748189       15.923073       25.366450
  O           35.765864       15.716893       24.161926
  O           35.104454       16.945273       25.990319
  C           34.410152       17.810346       25.105959
  H           37.880257       14.390796       25.099215
  H           37.550515       13.520086       26.611509
  H           36.409925       13.373757       25.264014
  H           33.934597       18.600436       25.702621
  H           35.109910       18.289928       24.406502
  H           33.633379       17.266313       24.567023
  C           15.564955       14.989289       16.478863
  O           15.008279       16.230574       16.028174
  C           14.793988       17.124166       17.022192
  O           15.023118       16.945717       18.209355
  O           14.272818       18.253142       16.472378
  C           13.995611       19.275287       17.416240
  H           14.884827       14.491201       17.177886
  H           15.703466       14.340465       15.609126
  H           16.538700       15.149969       16.945235
  H           13.573975       20.134300       16.877055
  H           13.247474       18.934107       18.146163
  H           14.910497       19.594176       17.917332
  C           12.726151       16.521211       34.597618
  O           12.343984       16.320883       33.231010
  C           13.273296       16.737060       32.339003
  O           14.348822       17.250433       32.609913
  O           12.800316       16.491541       31.088200
  C           13.684534       16.889225       30.052581
  H           12.874759       17.586034       34.805866
  H           11.918079       16.153119       35.236468
  H           13.631573       15.958159       34.831462
  H           13.210346       16.657312       29.089376
  H           13.860176       17.973949       30.090320
  H           14.624978       16.340549       30.118297
  C           23.926844       12.037743       28.006640
  O           23.890416       11.884735       26.582188
  C           22.742317       12.325336       26.016292
  O           21.788856       12.807718       26.609520
  O           22.830110       12.132057       24.673371
  C           21.679375       12.551167       23.957370
  H           23.126984       11.457602       28.478825
  H           24.887861       11.659387       28.367048
  H           23.847238       13.090558       28.283666
  H           21.845941       12.346599       22.891158
  H           20.796292       11.979546       24.277236
  H           21.516345       13.622152       24.084696
  C            9.277765        2.099078       18.824797
  O           10.545532        2.761786       18.738855
  C           11.314986        2.610655       19.842304
  O           11.010552        1.989645       20.849958
  O           12.483383        3.275436       19.638797
  C           13.384375        3.199079       20.731905
  H            8.684910        2.503474       19.652014
  H            8.735260        2.275715       17.891477
  H            9.412596        1.022510       18.944469
  H           14.286279        3.769986       20.472996
  H           12.941944        3.654830       21.629371
  H           13.670753        2.163947       20.922403
  C            3.903582       22.436828       32.042562
  O            5.078975       22.384570       32.860804
  C            5.222255       21.219151       33.534429
  O            4.453415       20.269815       33.497739
  O            6.366663       21.289649       34.265087
  C            6.632771       20.123388       35.027663
  H            3.000931       22.340569       32.655143
  H            3.879055       23.408330       31.540385
  H            3.929949       21.656949       31.279284
  H            7.566680       20.283066       35.583286
  H            5.830259       19.948721       35.758667
  H            6.759667       19.258328       34.375461
  C           16.708116       22.700275       12.204004
  O           16.525259       23.976054       11.577305
  C           17.656524       24.716361       11.508864
  O           18.755546       24.388262       11.931003
  O           17.357400       25.892061       10.895060
  C           18.465234       26.768402       10.763804
  H           17.040637       22.822189       13.240279
  H           15.745898       22.179970       12.208241
  H           17.422979       22.094425       11.644167
  H           18.119944       27.685056       10.266892
  H           18.856363       27.046968       11.752905
  H           19.244842       26.313385       10.151455
  C            3.840999       22.992606        6.093760
  O            5.074325       22.947587        5.365282
  C            5.546040       24.167729        5.017088
  O            5.013182       25.239935        5.262315
  O            6.712599       23.994143        4.340694
  C            7.312497       25.206055        3.911869
  H            3.050691       23.449694        5.488958
  H            3.545725       21.966293        6.330603
  H            3.966196       23.538224        7.030845
  H            8.237167       24.958739        3.373149
  H            6.648997       25.740380        3.216768
  H            7.565672       25.833439        4.767493
  C           26.690104        5.632402        4.282648
  O           27.809055        6.383113        3.794608
  C           28.604203        6.874253        4.773903
  O           28.432565        6.733741        5.975776
  O           29.624007        7.557475        4.189347
  C           30.534103        8.131140        5.114082
  H           26.039875        6.262896        4.898261
  H           26.114700        5.277579        3.422642
  H           27.026925        4.763910        4.851658
  H           31.309386        8.663296        4.546502
  H           30.022594        8.863046        5.755620
  H           31.012626        7.355801        5.713803
  C           20.401494        2.205783       14.731784
  O           19.409578        2.917856       13.981547
  C           19.915642        3.627938       12.946084
  O           21.095356        3.702554       12.635589
  O           18.884798        4.250081       12.314579
  C           19.284144        5.037795       11.204385
  H           21.121658        2.899870       15.177774
  H           19.897711        1.664486       15.537885
  H           20.915229        1.479121       14.099693
  H           18.386678        5.500461       10.772072
  H           19.958617        5.844351       11.526026
  H           19.756592        4.416563       10.442372
  C            1.986540        7.067633       14.832390
  O            2.035258        8.391238       14.285126
  C            3.218122        9.019125       14.482838
  O            4.185324        8.558943       15.071440
  O            3.142110       10.254007       13.919110
  C            4.325564       11.023170       14.061679
  H            2.126254        7.092388       15.918285
  H            0.999992        6.645518       14.619924
  H            2.739922        6.429681       14.366631
  H            4.160138       11.998148       13.583712
  H            4.544924       11.200626       15.124360
  H            5.165107       10.531862       13.568138
  C           32.839264       26.642218       10.923594
  O           34.141398       26.903117       10.384911
  C           35.150414       26.386516       11.124850
  O           35.028016       25.757553       12.165582
  O           36.325172       26.694362       10.513561
  C           37.470754       26.210705       11.196363
  H           32.733745       27.092425       11.916308
  H           32.097062       27.093108       10.258437
  H           32.649551       25.568322       10.971097
  H           38.361222       26.516313       10.630616
  H           37.538614       26.655517       12.199577
  H           37.452385       25.121623       11.254360
  C           21.327210       14.153145       19.641979
  O           21.123423       15.443182       19.052000
  C           19.857694       15.650182       18.618895
  O           18.936027       14.850445       18.687090
  O           19.790252       16.900040       18.088040
  C           18.507180       17.242583       17.589153
  H           21.134427       13.359198       18.912744
  H           22.371195       14.083824       19.961182
  H           20.691132       14.025626       20.519842
  H           18.559781       18.259778       17.178121
  H           18.215761       16.563686       16.774860
  H           17.767064       17.229047       18.390306
  C           28.921718       24.028193        8.092135
  O           30.226711       24.433660        8.523864
  C           30.679295       25.553263        7.912181
  O           30.084284       26.195691        7.059569
  O           31.914266       25.836204        8.405427
  C           32.506785       26.993687        7.838280
  H           28.922799       23.796268        7.021850
  H           28.644934       23.123910        8.641920
  H           28.184606       24.802517        8.312561
  H           33.496935       27.129876        8.293752
  H           32.647758       26.864114        6.755581
  H           31.902658       27.877169        8.048734
  C           27.715156       34.591708       27.025427
  O           26.704981       35.351780       26.350417
  C           26.690113       36.661739       26.691424
  O           27.433400       37.202040       27.497214
  O           25.700017       37.271983       25.987284
  C           25.574515       38.658759       26.258580
  H           27.554195       34.609854       28.108508
  H           27.649325       33.554853       26.683087
  H           28.709669       34.970439       26.782514
  H           24.748952       39.053358       25.651014
  H           25.324614       38.824061       27.316467
  H           26.489254       39.187709       25.987907
  C           35.578031       20.146238       12.507995
  O           34.490384       20.968438       12.949367
  C           33.442889       20.992170       12.092226
  O           33.374808       20.399412       11.025595
  O           32.481347       21.795609       12.619885
  C           31.322267       21.910506       11.810050
  H           35.983910       20.516959       11.560826
  H           36.368003       20.189143       13.263444
  H           35.258968       19.107521       12.404239
  H           30.615495       22.581466       12.316691
  H           31.573787       22.356815       10.837195
  H           30.846158       20.937757       11.680125
  C           17.674027        2.327462       32.483732
  O           16.362038        2.859373       32.261120
  C           15.592917        2.091774       31.453814
  O           15.930388        1.041708       30.927340
  O           14.381247        2.694669       31.323924
  C           13.475574        1.988072       30.491471
  H           18.225800        2.250994       31.540864
  H           18.212962        3.011628       33.145598
  H           17.617364        1.352430       32.971175
  H           12.537210        2.557078       30.445574
  H           13.872739        1.908236       29.469323
  H           13.263907        1.000979       30.904561
  C           18.878210       25.817989       25.736261
  O           17.718415       26.400721       25.128727
  C           17.111521       27.334518       25.898274
  O           17.464274       27.683780       27.015092
  O           16.036611       27.812393       25.216582
  C           15.304985       28.802819       25.921053
  H           18.611102       25.302635       26.664897
  H           19.296508       25.084149       25.041202
  H           19.636583       26.579174       25.928529
  H           14.459476       29.115325       25.293475
  H           14.897995       28.390419       26.855496
  H           15.930684       29.673761       26.120455
  C            8.108126        7.996988       32.875777
  O            9.389270        8.110791       33.507853
  C           10.325614        7.278709       32.994629
  O           10.154417        6.478325       32.087007
  O           11.488830        7.482250       33.668424
  C           12.558321        6.661414       33.226930
  H            7.702604        6.987557       33.001883
  H            7.426277        8.706126       33.354112
  H            8.177073        8.249307       31.816022
  H           13.442942        6.895105       33.834577
  H           12.316744        5.599224       33.376241
  H           12.791639        6.863765       32.180787
  C           39.002296       35.569914       38.136429
  O           37.695983       35.831019       38.664795
  C           36.740182       34.997894       38.190614
  O           36.909879       34.097411       37.381891
  O           35.556252       35.340511       38.764570
  C           34.462728       34.540237       38.344730
  H           39.013435       35.701189       37.049257
  H           39.700013       36.286939       38.578770
  H           39.331370       34.563377       38.401183
  H           33.559161       34.899733       38.855346
  H           34.302489       34.643035       37.261838
  H           34.623740       33.496217       38.616573
  C           26.601609       18.316761       20.678921
  O           26.176323       19.575436       20.141641
  C           24.987721       19.518447       19.496290
  O           24.300747       18.519096       19.344420
  O           24.692973       20.764688       19.039665
  C           23.464184       20.841318       18.334891
  H           26.738236       17.580945       19.879415
  H           27.562456       18.465663       21.180121
  H           25.884246       17.949428       21.415098
  H           23.323358       21.879038       18.003673
  H           23.491464       20.201945       17.440823
  H           22.631233       20.567231       18.983635
  C           34.222155       13.275510       20.050008
  O           35.211885       14.271928       19.764723
  C           35.422567       14.467215       18.441857
  O           34.861983       13.875942       17.530900
  O           36.371450       15.430734       18.301311
  C           36.690363       15.728788       16.951511
  H           34.529306       12.300942       19.656083
  H           34.121959       13.193766       21.136230
  H           33.253831       13.564354       19.637191
  H           37.465724       16.506727       16.946429
  H           37.098470       14.841575       16.446335
  H           35.813976       16.107784       16.424152
  C           30.000026       23.487476       30.954115
  O           30.084154       24.298799       29.775778
  C           30.472420       25.572747       30.018279
  O           30.731037       26.047905       31.114199
  O           30.518386       26.235146       28.831850
  C           30.910408       27.593538       28.948433
  H           29.257495       23.891731       31.650193
  H           29.684626       22.483237       30.656411
  H           30.974453       23.410807       31.440031
  H           30.908487       28.038069       27.944048
  H           30.191719       28.151056       29.566139
  H           31.917657       27.668943       29.360213
  C           23.116666       34.366117        9.242567
  O           22.462083       35.515998        8.692028
  C           22.777211       36.674002        9.318303
  O           23.532241       36.791624       10.272135
  O           22.102751       37.683868        8.706932
  C           22.343808       38.960995        9.275560
  H           22.828013       34.220344       10.288861
  H           22.802977       33.487510        8.671385
  H           24.200679       34.461508        9.157036
  H           21.751507       39.700636        8.720123
  H           22.015952       38.984498       10.324778
  H           23.398530       39.226206        9.191749
  C           22.402915       19.121804       22.004559
  O           22.120902       20.205152       21.109782
  C           22.899493       21.294169       21.310627
  O           23.768978       21.407605       22.161995
  O           22.542251       22.243609       20.405397
  C           23.285735       23.446998       20.513040
  H           22.224652       19.420935       23.042847
  H           21.730075       18.293975       21.762513
  H           23.430681       18.775958       21.879706
  H           22.918403       24.146088       19.749667
  H           23.130264       23.909985       21.498115
  H           24.345521       23.261429       20.333544
  C           13.634582       26.155209       24.407460
  O           13.922005       25.342044       25.551991
  C           14.062210       24.026737       25.264223
  O           13.956169       23.518932       24.157611
  O           14.334766       23.366314       26.420966
  C           14.500980       21.967057       26.256793
  H           12.687678       25.854357       23.946851
  H           13.543440       27.193505       24.739475
  H           14.446320       26.097938       23.679928
  H           14.707879       21.528668       27.242393
  H           13.577662       21.511262       25.871260
  H           15.343912       21.754792       25.597848
  C           10.248221        9.408686       39.206739
  O            9.804421        8.115195       39.635369
  C            8.676592        7.693712       39.016617
  O            8.046205        8.313964       38.173053
  O            8.361826        6.462961       39.501048
  C            7.187158        5.906377       38.932832
  H            9.492287       10.169855       39.426933
  H           11.160283        9.657342       39.757116
  H           10.482133        9.402495       38.140556
  H            7.016700        4.923552       39.392615
  H            6.314900        6.538439       39.153203
  H            7.307406        5.770992       37.857188
  C            4.687894       18.427103       25.985980
  O            4.364630       17.342270       26.864865
  C            3.034424       17.143658       27.018504
  O            2.145733       17.798115       26.493515
  O            2.857326       16.093772       27.864008
  C            1.496091       15.782642       28.114482
  H            4.294595       19.371749       26.376183
  H            5.777289       18.504840       25.924532
  H            4.300477       18.239455       24.982886
  H            1.461180       14.932730       28.809342
  H            0.987842       16.631860       28.593452
  H            0.990667       15.497704       27.190818
  C           37.547068       21.088483       38.278432
  O           38.123657       19.879349       37.769178
  C           37.922116       18.802716       38.564629
  O           37.323348       18.799636       39.630072
  O           38.507342       17.725571       37.976607
  C           38.371624       16.523572       38.717740
  H           37.990568       21.351858       39.244476
  H           37.759007       21.893909       37.569227
  H           36.463967       20.989939       38.371605
  H           38.880937       15.721741       38.166317
  H           38.856366       16.618910       39.700000
  H           37.319793       16.256368       38.827530
  C            9.018209       11.700340       23.964941
  O            9.241016       10.353475       23.528923
  C            8.706623        9.419634       24.350426
  O            8.091266        9.639932       25.383143
  O            8.978835        8.192767       23.831584
  C            8.473382        7.117476       24.606675
  H            9.480732       11.872199       24.942611
  H            9.480964       12.375880       23.239612
  H            7.949933       11.920839       24.005759
  H            8.750940        6.177568       24.110756
  H            8.926266        7.117521       25.608571
  H            7.385732        7.168441       24.671629
  C           19.644243        4.294302       20.665414
  O           18.225148        4.096936       20.633515
  C           17.791169        3.440790       19.531864
  O           18.490720        3.038769       18.613873
  O           16.440516        3.312138       19.619524
  C           15.855696        2.640485       18.515274
  H           19.969510        4.903461       19.815457
  H           19.895261        4.825540       21.588114
  H           20.166989        3.336061       20.668487
  H           14.770265        2.595708       18.677244
  H           16.035845        3.197978       17.584872
  H           16.238189        1.621859       18.438456
  C           31.216910       15.311164        5.794313
  O           30.173108       15.249588        6.774357
  C           28.975680       14.867836        6.271435
  O           28.741310       14.597763        5.102747
  O           28.076080       14.843380        7.290564
  C           26.769369       14.460264        6.892786
  H           30.977424       16.047096        5.019490
  H           32.138310       15.622901        6.294755
  H           31.384778       14.329552        5.347371
  H           26.121805       14.479494        7.779743
  H           26.363235       15.174621        6.162272
  H           26.772556       13.448030        6.486373
  C           29.146115       32.702099       35.551593
  O           29.313871       34.106595       35.781913
  C           30.399439       34.409693       36.531696
  O           31.192174       33.608129       37.003678
  O           30.451921       35.760682       36.675131
  C           31.550107       36.212611       37.451178
  H           29.005876       32.168749       36.497728
  H           28.251384       32.560280       34.938451
  H           30.001499       32.295304       35.009064
  H           31.497908       37.307966       37.513417
  H           31.490714       35.812796       38.473685
  H           32.493878       35.935636       36.979606
  C           18.996319       14.925051       22.964112
  O           18.233893       13.786684       22.543844
  C           17.210966       13.479152       23.375435
  O           16.920390       14.070350       24.404876
  O           16.566100       12.393694       22.871025
  C           15.467136       11.962810       23.657864
  H           19.458059       14.742701       23.940249
  H           19.790916       15.094188       22.231577
  H           18.368662       15.817335       23.001220
  H           15.022724       11.083102       23.173084
  H           15.804431       11.662021       24.660191
  H           14.709496       12.744980       23.721034
  C           22.590115       31.128290       10.239560
  O           21.722919       32.268971       10.214690
  C           20.647020       32.117659        9.407196
  O           20.389589       31.132159        8.731757
  O           19.905008       33.255084        9.471871
  C           18.741652       33.227612        8.660484
  H           22.998410       30.930673        9.242794
  H           23.421065       31.344785       10.917241
  H           22.061587       30.250039       10.614836
  H           18.220411       34.187446        8.776359
  H           19.012679       33.115993        7.600774
  H           18.071255       32.427387        8.976725
  C            2.994440       26.958592       13.115370
  O            4.023771       26.748692       14.090161
  C            5.185847       27.379257       13.799528
  O            5.401774       28.067160       12.812682
  O            6.074572       27.109338       14.792409
  C            7.344847       27.712290       14.604394
  H            3.301339       26.570009       12.138581
  H            2.101226       26.416079       13.438556
  H            2.743748       28.018381       13.041195
  H            7.987006       27.428883       15.449209
  H            7.815638       27.341230       13.682673
  H            7.255317       28.799214       14.584905
  C           12.754252       26.131215        8.258245
  O           12.019503       27.314039        7.919319
  C           12.328104       27.816436        6.700769
  O           13.151148       27.357283        5.922644
  O           11.568690       28.925149        6.494505
  C           11.801188       29.554971        5.244798
  H           13.828893       26.339375        8.291658
  H           12.434394       25.802391        9.251304
  H           12.544208       25.329751        7.547587
  H           11.150293       30.437280        5.179476
  H           12.843414       29.897833        5.173308
  H           11.556476       28.880651        4.423088
  C            4.872243       23.972757       21.426293
  O            5.007193       25.365805       21.734520
  C            4.320371       26.177909       20.897106
  O            3.641013       25.819401       19.946504
  O            4.522504       27.463042       21.292170
  C            3.855405       28.421969       20.487224
  H            5.262469       23.758129       20.425814
  H            5.455970       23.402859       22.155045
  H            3.829218       23.660076       21.502651
  H            4.087221       29.420715       20.881138
  H            4.218196       28.375043       19.450363
  H            2.775504       28.273911       20.528376
  C           12.771657       31.752545       24.062937
  O           12.890162       33.089426       23.560437
  C           13.972578       33.280274       22.770215
  O           14.809472       32.437005       22.483498
  O           13.971936       34.575134       22.355682
  C           15.066533       34.909315       21.517422
  H           13.635944       31.494446       24.683979
  H           11.871760       31.698288       24.682486
  H           12.666615       31.040045       23.242687
  H           14.978914       35.970025       21.246099
  H           16.017612       34.774780       22.052445
  H           15.046796       34.313834       20.603740
  C           31.500152        7.336841       24.851061
  O           32.186837        6.173523       25.329555
  C           33.464162        6.076565       24.891904
  O           34.031011        6.866595       24.151474
  O           34.006128        4.943807       25.413087
  C           35.352024        4.720656       25.024156
  H           31.434377        7.325235       23.757974
  H           30.485202        7.327151       25.258962
  H           31.998083        8.246307       25.192291
  H           35.691827        3.784593       25.487534
  H           35.424224        4.603420       23.933311
  H           35.992114        5.532871       25.371128
  C            6.416832       23.307084        8.438787
  O            6.497333       24.228104        7.343780
  C            6.316315       25.520235        7.704514
  O            6.092797       25.924932        8.835868
  O            6.419248       26.290364        6.588806
  C            6.242974       27.677000        6.831023
  H            5.426137       23.344501        8.903999
  H            6.578495       22.297643        8.049564
  H            7.192036       23.517767        9.177821
  H            6.336116       28.206623        5.873305
  H            5.237619       27.874414        7.230007
  H            7.010901       28.049202        7.510401
  C           24.012785        3.465608       10.975335
  O           23.004996        4.453289       10.725039
  C           22.648323        4.549561        9.422727
  O           23.110850        3.892930        8.501530
  O           21.690702        5.508668        9.315143
  C           21.230506        5.713156        7.988906
  H           24.935008        3.708572       10.437030
  H           24.228891        3.461242       12.047659
  H           23.658215        2.472587       10.693040
  H           20.471122        6.506479        8.008276
  H           22.053761        6.049078        7.342139
  H           20.773629        4.803897        7.596081
  C           15.073549       17.934370        9.819760
  O           14.768136       16.648136        9.266474
  C           13.758872       16.007666        9.901836
  O           13.135825       16.428483       10.865384
  O           13.562277       14.811157        9.286841
  C           12.525965       14.033198        9.864194
  H           15.397181       17.840557       10.861759
  H           15.892956       18.370204        9.240778
  H           14.211245       18.599785        9.747969
  H           12.452920       13.090721        9.304907
  H           12.763650       13.788379       10.909407
  H           11.570047       14.553935        9.794538
  C           35.996092       37.557046       24.759654
  O           35.425778       37.011962       25.956076
  C           35.117019       37.945444       26.886547
  O           35.292291       39.150285       26.780063
  O           34.584116       37.310118       27.963987
  C           34.219306       38.182555       29.021469
  H           36.936825       38.072814       24.979434
  H           36.206205       36.731313       24.073638
  H           35.294474       38.237010       24.272948
  H           33.810004       37.575791       29.840438
  H           35.101656       38.715476       29.404029
  H           33.452762       38.885510       28.692738
  C           30.326660       11.138607        2.223441
  O           31.686456       10.753312        2.460720
  C           31.873250        9.413249        2.503614
  O           31.005498        8.563047        2.369963
  O           33.193023        9.176066        2.728209
  C           33.523745        7.798432        2.800654
  H           29.676378       10.778571        3.027684
  H           30.279130       12.231274        2.202916
  H           29.981867       10.762287        1.258557
  H           34.602224        7.714571        2.991047
  H           32.994691        7.317868        3.636153
  H           33.297095        7.298626        1.857986
  C           21.545168       27.554042       13.724638
  O           21.930978       26.292724       13.164258
  C           21.496486       25.225429       13.874610
  O           20.843175       25.268021       14.906632
  O           21.918637       24.096745       13.245038
  C           21.530175       22.897683       13.896073
  H           21.968739       27.678103       14.726884
  H           21.937213       28.348126       13.082507
  H           20.457915       27.645151       13.757491
  H           21.923689       22.050874       13.317746
  H           21.963893       22.848395       14.905211
  H           20.443135       22.816587       13.935683
  C           37.450085       31.917093        6.839993
  O           36.594098       32.341140        7.908295
  C           37.222207       33.089887        8.844968
  O           38.404318       33.400209        8.841394
  O           36.311737       33.431701        9.795078
  C           36.847810       34.220101       10.845579
  H           38.261717       31.288137        7.220740
  H           36.854433       31.326152        6.138147
  H           37.855263       32.778210        6.305382
  H           36.040834       34.434347       11.559224
  H           37.633952       33.667779       11.380201
  H           37.230848       35.165655       10.459562
  C           22.505338       29.293358       35.016275
  O           21.635855       29.997359       35.911921
  C           20.935775       30.993703       35.320578
  O           21.001916       31.316770       34.143738
  O           20.150650       31.578200       36.264210
  C           19.362831       32.649903       35.770962
  H           23.257465       29.969251       34.595832
  H           23.020276       28.511961       35.582719
  H           21.933202       28.817385       34.217770
  H           18.775783       33.056039       36.605724
  H           20.004563       33.455307       35.385731
  H           18.675107       32.298617       35.000615
  C           19.972100       20.617903       15.059377
  O           19.792090       19.358443       15.719041
  C           20.291593       18.306123       15.029390
  O           20.844736       18.358882       13.940836
  O           20.065345       17.178283       15.754157
  C           20.540448       15.993770       15.134717
  H           19.452922       20.627523       14.095187
  H           19.542106       21.400051       15.691792
  H           21.033360       20.833100       14.921839
  H           20.303773       15.145378       15.790931
  H           20.031798       15.829959       14.173810
  H           21.621932       16.037839       14.999620
  C           31.693059       10.222100        9.568803
  O           30.318091       10.265894        9.167128
  C           30.122648       10.836567        7.955255
  O           30.992093       11.297281        7.230336
  O           28.790075       10.815070        7.686394
  C           28.447925       11.392847        6.436751
  H           32.104264       11.233638        9.652468
  H           31.747582        9.744006       10.551175
  H           32.281545        9.629451        8.865987
  H           27.357482       11.333769        6.319086
  H           28.733600       12.454276        6.411085
  H           28.916256       10.844255        5.618514
  C           30.085936       24.839931       34.216383
  O           31.173072       24.461024       33.362940
  C           32.201894       23.874988       34.019132
  O           32.261773       23.669737       35.222455
  O           33.161173       23.560048       33.108585
  C           34.305198       22.939043       33.672552
  H           30.414832       25.574268       34.959267
  H           29.308657       25.297829       33.597703
  H           29.659823       23.964544       34.709968
  H           35.018002       22.733902       32.862472
  H           34.794813       23.611876       34.391213
  H           34.035501       21.994145       34.146081
  C           37.399353       15.586181       10.348109
  O           37.158527       14.933344       11.600948
  C           38.284827       14.676671       12.306687
  O           39.425905       14.942503       11.958875
  O           37.927837       14.065180       13.467350
  C           39.025808       13.735574       14.303005
  H           38.015664       14.957876        9.696424
  H           36.435644       15.752440        9.857985
  H           37.876571       16.555488       10.503697
  H           38.635134       13.242776       15.203518
  H           39.698385       13.028922       13.795874
  H           39.563188       14.635645       14.604492
  C            9.070683       12.626015       15.435714
  O           10.245818       12.274657       14.694495
  C           10.043609       12.195767       13.358311
  O            8.983387       12.384938       12.780519
  O           11.223129       11.862595       12.769899
  C           11.145885       11.742144       11.358508
  H            8.288893       11.870773       15.302623
  H            9.334760       12.667557       16.496439
  H            8.704491       13.609314       15.134838
  H           12.140260       11.464788       10.983416
  H           10.443832       10.944146       11.077047
  H           10.856299       12.691898       10.906946
  C           23.020572       31.205201       13.756652
  O           24.146836       32.008943       13.383383
  C           25.162975       31.971138       14.276989
  O           25.175303       31.339866       15.323433
  O           26.165837       32.762955       13.812453
  C           27.297793       32.814484       14.665987
  H           22.591719       31.554887       14.701694
  H           22.259946       31.298241       12.976017
  H           23.305408       30.154322       13.834247
  H           28.041555       33.480947       14.208772
  H           27.024399       33.234112       15.644797
  H           27.740476       31.823839       14.777581
  C           16.860462       32.351860       13.073131
  O           17.665194       32.995008       12.076855
  C           18.663205       33.752879       12.588817
  O           18.900631       33.920144       13.775979
  O           19.352390       34.302090       11.553496
  C           20.431000       35.130108       11.957832
  H           16.366849       33.093528       13.709979
  H           16.090144       31.765001       12.564399
  H           17.464729       31.673302       13.678045
  H           20.914265       35.528204       11.055405
  H           20.063560       35.981836       12.548127
  H           21.166779       34.554988       12.521449
  C           20.496316       36.878943        1.926443
  O           19.215745       36.303734        1.638220
  C           18.399063       36.225456        2.714976
  O           18.672566       36.584456        3.850764
  O           17.223267       35.671548        2.315990
  C           16.273616       35.528073        3.360058
  H           21.037212       36.271616        2.659849
  H           21.077545       36.901906        1.000028
  H           20.386635       37.903097        2.287801
  H           15.369220       35.067893        2.939697
  H           16.659501       34.860417        4.143785
  H           16.008058       36.501452        3.774560
  C            5.855623       10.106738       31.265464
  O            4.941824        9.270527       30.544686
  C            3.655037        9.398117       30.945187
  O            3.249815       10.130763       31.835537
  O            2.891263        8.564567       30.189976
  C            1.510911        8.599349       30.515429
  H            5.854664        9.852893       32.330763
  H            6.861013        9.935653       30.869834
  H            5.606844       11.160313       31.125509
  H            0.986431        7.891076       29.859937
  H            1.351282        8.279395       31.555164
  H            1.101581        9.596499       30.348272
  C           30.499629       16.932212       31.751111
  O           30.735316       15.593979       32.206505
  C           31.753365       14.972268       31.566541
  O           32.436622       15.448951       30.672319
  O           31.880295       13.722219       32.085931
  C           32.918003       12.957759       31.493256
  H           30.224995       16.937594       30.690995
  H           29.667233       17.347897       32.326370
  H           31.378527       17.557315       31.919290
  H           32.932618       11.969855       31.973080
  H           32.724411       12.809887       30.421083
  H           33.885750       13.435538       31.651348
  C           18.196603       35.700395       22.871488
  O           17.740908       35.575401       24.224454
  C           18.518734       34.773803       24.989260
  O           19.519535       34.178662       24.617907
  O           17.990051       34.739381       26.241382
  C           18.714734       33.923081       27.147467
  H           18.193916       34.726522       22.370623
  H           17.510145       36.365232       22.339165
  H           19.194599       36.141415       22.839785
  H           18.206033       33.956016       28.120369
  H           18.721754       32.878311       26.804967
  H           19.731354       34.297709       27.273704
  C            9.110117       25.360584       29.535519
  O            7.924552       25.250684       28.737925
  C            7.427650       26.443222       28.333646
  O            7.893569       27.541691       28.598193
  O            6.315644       26.208254       27.587502
  C            5.691019       27.386127       27.102775
  H            8.907473       25.919564       30.455180
  H            9.434108       24.351900       29.807891
  H            9.912727       25.837417       28.969880
  H            4.805532       27.090916       26.523842
  H            5.353839       28.016121       27.938429
  H            6.366659       27.937859       26.447868
  C            3.315326       34.423603       26.406517
  O            4.659524       34.387574       25.910902
  C            4.764830       33.885415       24.658206
  O            3.841992       33.476952       23.968839
  O            6.076602       33.907399       24.301454
  C            6.325636       33.398675       23.000808
  H            2.895449       33.413602       26.460373
  H            3.333859       34.844966       27.415829
  H            2.690131       35.062269       25.779829
  H            7.406529       33.452193       22.813173
  H            6.022927       32.343752       22.934440
  H            5.811927       33.998654       22.248525
  C           27.003476       21.420301       29.175286
  O           26.156838       21.561732       30.322893
  C           24.909546       21.067079       30.143785
  O           24.483384       20.547255       29.123065
  O           24.209712       21.254776       31.294221
  C           22.873976       20.780442       31.236623
  H           26.591928       21.967876       28.320833
  H           27.982680       21.843111       29.418167
  H           27.138007       20.366936       28.922653
  H           22.395846       20.984795       32.204111
  H           22.307741       21.314788       30.460252
  H           22.855532       19.704217       31.059992
  C           30.120786       29.952370       25.921744
  O           31.471126       30.135653       26.365354
  C           31.596596       30.212693       27.711022
  O           30.684215       30.148877       28.521693
  O           32.913339       30.380473       28.005197
  C           33.182109       30.481237       29.394481
  H           29.495362       30.798456       26.225527
  H           30.123734       29.898890       24.829164
  H           29.710810       29.018030       26.309597
  H           34.263628       30.621639       29.524888
  H           32.673522       31.356532       29.823547
  H           32.885302       29.567327       29.910691
  C           24.708214       34.921594       12.581714
  O           25.797053       35.831014       12.784652
  C           25.407560       37.071510       13.161436
  O           24.254570       37.444283       13.320663
  O           26.521172       37.834014       13.325616
  C           26.248718       39.169542       13.718852
  H           24.050962       35.277206       11.781176
  H           25.121775       33.953202       12.285431
  H           24.142678       34.784753       13.505264
  H           27.205554       39.700039       13.815997
  H           25.653387       39.684206       12.950996
  H           25.740175       39.190033       14.683613
  C           17.814748        5.258391        6.229917
  O           16.597367        5.010553        6.944312
  C           16.093242        3.769765        6.747325
  O           16.577302        2.903360        6.034073
  O           14.950522        3.655888        7.475146
  C           14.315447        2.393393        7.351513
  H           17.653207        5.176746        5.149853
  H           18.142136        6.277626        6.454809
  H           18.597423        4.568338        6.550459
  H           13.405336        2.406053        7.966279
  H           14.016622        2.212053        6.309054
  H           14.968214        1.597718        7.712893
  C           24.767691       29.987400       22.179836
  O           24.822535       31.245222       21.495236
  C           24.466548       31.171541       20.191263
  O           24.130591       30.158869       19.595170
  O           24.554002       32.418589       19.656731
  C           24.208993       32.478601       18.282007
  H           25.460893       29.270151       21.727815
  H           25.067130       30.150130       23.219286
  H           23.751393       29.589148       22.174186
  H           24.318912       33.518608       17.946296
  H           24.891744       31.856867       17.685183
  H           23.172879       32.172384       18.132007
  C           16.491724        1.955192       26.140504
  O           17.374873        2.973364       25.653499
  C           18.462730        3.170034       26.434773
  O           18.718479        2.575864       27.471717
  O           19.219093        4.148516       25.869984
  C           20.396162        4.456385       26.599523
  H           16.098478        2.223251       27.126811
  H           15.651954        1.869097       25.444821
  H           17.001354        0.990873       26.183701
  H           20.928453        5.257313       26.068882
  H           20.142451        4.826552       27.603270
  H           21.049747        3.585204       26.660101
  C           28.376990       34.409798        4.652487
  O           28.577362       34.116023        6.040777
  C           28.742898       32.797754        6.300130
  O           28.723981       31.896141        5.475244
  O           28.927095       32.648857        7.638936
  C           29.109243       31.302255        8.046347
  H           27.469288       33.922690        4.280863
  H           28.257697       35.491877        4.545370
  H           29.242630       34.100408        4.063892
  H           29.240600       31.289012        9.136746
  H           28.219677       30.702498        7.805800
  H           30.001105       30.877891        7.583423
  C           19.349252       12.710219       34.260096
  O           18.767175       11.540755       34.849450
  C           18.605349       10.515791       33.980105
  O           18.898373       10.528012       32.793644
  O           18.053563        9.471594       34.653665
  C           17.826011        8.325970       33.848515
  H           18.708541       13.101682       33.462884
  H           19.441720       13.475003       35.036727
  H           20.346454       12.491800       33.873597
  H           17.374607        7.548195       34.479150
  H           17.118811        8.557343       33.039049
  H           18.766064        7.945693       33.446657
  C           12.208446       27.170034       11.635928
  O           13.071932       27.819750       12.577236
  C           12.846692       29.149347       12.695296
  O           12.009761       29.792909       12.079606
  O           13.717761       29.647146       13.612866
  C           13.588205       31.043382       13.827900
  H           12.352175       27.581064       10.631092
  H           12.463806       26.106578       11.614622
  H           11.164520       27.265893       11.940116
  H           14.335341       31.345879       14.574012
  H           13.793127       31.597413       12.900562
  H           12.595931       31.282618       14.212555
  C           36.846344       31.796652       16.676915
  O           36.167449       31.268166       15.530790
  C           35.439525       30.157405       15.793158
  O           35.338777       29.605243       16.878822
  O           34.844739       29.757529       14.637810
  C           34.049750       28.590766       14.776217
  H           37.559638       31.067118       17.074775
  H           37.399621       32.687713       16.366277
  H           36.131230       32.088702       17.448160
  H           33.623494       28.348084       13.793460
  H           34.666798       27.739009       15.096628
  H           33.231902       28.763777       15.476925
  C           26.611133       11.036309       38.959429
  O           26.836874       11.320217       37.572981
  C           26.572201       12.602594       37.229535
  O           26.168291       13.477985       37.980700
  O           26.826841       12.747174       35.901847
  C           26.582803       14.055385       35.410391
  H           25.560197       11.198006       39.221514
  H           26.854379        9.984774       39.137490
  H           27.258605       11.649332       39.589098
  H           26.809216       14.065378       34.335664
  H           25.523766       14.323289       35.535163
  H           27.228422       14.779805       35.908579
  C           36.176040       39.236310       10.497549
  O           36.653993       39.614289        9.200439
  C           35.921996       39.106734        8.181092
  O           34.943699       38.382496        8.291163
  O           36.467589       39.536415        7.012246
  C           35.791127       39.066990        5.857024
  H           36.215192       38.149075       10.622798
  H           36.825744       39.694831       11.248710
  H           35.159283       39.600764       10.655280
  H           36.310239       39.460231        4.972556
  H           35.825719       37.969089        5.808879
  H           34.760698       39.424514        5.843101
  C           18.898568        9.397390       23.617350
  O           19.480843        8.262993       24.271490
  C           20.643792        7.850770       23.714604
  O           21.190269        8.349747       22.741936
  O           21.095980        6.780385       24.420510
  C           22.315797        6.245457       23.932250
  H           18.656229        9.161370       22.575781
  H           17.971867        9.654652       24.138542
  H           19.569349       10.257141       23.666147
  H           22.589221        5.386995       24.560487
  H           22.193529        5.884232       22.901005
  H           23.112494        6.988073       23.992214
  C           38.715567        3.797771       26.861131
  O           37.466578        4.491527       26.749200
  C           37.248065        5.383612       27.743653
  O           37.999820        5.613628       28.679418
  O           36.043544        5.975238       27.525459
  C           35.690315        6.935901       28.507729
  H           38.753775        3.216628       27.788553
  H           38.800705        3.107767       26.016592
  H           39.551349        4.498495       26.816910
  H           34.705457        7.346324       28.246945
  H           35.608473        6.463912       29.497389
  H           36.413778        7.752056       28.524831
  C            7.320203       13.247811        1.616682
  O            6.359670       13.518575        2.645206
  C            5.138521       13.862633        2.173062
  O            4.825604       13.959908        0.995641
  O            4.321158       14.088342        3.235828
  C            3.001873       14.464632        2.874726
  H            7.485793       14.136222        0.998131
  H            8.266361       12.977560        2.094541
  H            6.996684       12.408746        0.997968
  H            2.428410       14.630386        3.796716
  H            3.010624       15.406880        2.308165
  H            2.518893       13.671407        2.302604
  C           35.025264       15.441413        7.581694
  O           33.859405       14.645103        7.335798
  C           34.044141       13.682950        6.401649
  O           35.077908       13.469950        5.785486
  O           32.877955       12.998125        6.261918
  C           32.936487       11.956303        5.300835
  H           35.330888       15.971080        6.673208
  H           34.778409       16.182241        8.347746
  H           35.843540       14.822515        7.954374
  H           31.950680       11.473851        5.258100
  H           33.157165       12.363133        4.303494
  H           33.677205       11.209076        5.588566
  C            9.798441       10.251672        6.016110
  O           10.458558       11.242161        6.814217
  C           10.148677       12.514131        6.469884
  O            9.393934       12.850231        5.569274
  O           10.828033       13.354314        7.295153
  C           10.592797       14.728726        7.034089
  H           10.086109       10.347827        4.963826
  H           10.108175        9.264296        6.370728
  H            8.714910       10.329836        6.122658
  H           11.188714       15.319018        7.743200
  H           10.920460       14.990160        6.017630
  H            9.539352       14.972468        7.177772
  C            7.129746        2.414772       22.183942
  C            8.344222        3.011394       22.856912
  O            8.271789        4.438890       22.853779
  C            8.759846        5.040890       21.736642
  O            9.243508        4.485096       20.770482
  O            8.615992        6.380343       21.890823
  C            9.094406        7.146011       20.784626
  H            6.207482        2.771902       22.664344
  H            7.153118        1.318075       22.240600
  H            7.074728        2.705164       21.136590
  H            8.375842        2.695176       23.913513
  H            9.276007        2.649682       22.398609
  H           10.172382        6.983077       20.634892
  H            8.935250        8.203089       21.009024
  H            8.538512        6.898931       19.877799
  C           11.232954       34.155430       13.078544
  C            9.844632       33.564883       13.165814
  O            9.672243       32.862712       14.398794
  C           10.079243       31.565470       14.388069
  O           10.558396       30.967531       13.445105
  O            9.851824       31.049234       15.621107
  C           10.231623       29.679358       15.755242
  H           11.431226       34.805446       13.942875
  H           11.346722       34.747648       12.160483
  H           11.994876       33.378425       13.084673
  H            9.095338       34.374670       13.151571
  H            9.624536       32.925619       12.298635
  H            9.657128       29.045943       15.062609
  H           10.006594       29.362890       16.776178
  H           11.303791       29.560018       15.586085
  C           24.455618       30.910232       37.407552
  C           25.204339       31.955181       38.202094
  O           24.333815       33.027040       38.571289
  C           24.206028       34.014266       37.645192
  O           24.757172       34.064398       36.563514
  O           23.353184       34.942963       38.143970
  C           23.126321       36.049974       37.271124
  H           23.585562       30.545619       37.972317
  H           25.107079       30.056565       37.176571
  H           24.078012       31.319176       36.472417
  H           25.579234       31.510363       39.139640
  H           26.088229       32.317308       37.657390
  H           24.064684       36.590290       37.074818
  H           22.432942       36.734868       37.764323
  H           22.672713       35.714793       36.336088
  C           20.852582        2.227006       24.487487
  C           20.314982        1.910829       23.110963
  O           19.383428        2.910609       22.691861
  C           18.099968        2.710837       23.093635
  O           17.687963        1.778678       23.755172
  O           17.352538        3.738493       22.620484
  C           15.969567        3.656856       22.966209
  H           21.303389        3.229683       24.505156
  H           21.614677        1.494150       24.785201
  H           20.059697        2.222586       25.232881
  H           21.141062        1.916834       22.379556
  H           19.876182        0.903320       23.072497
  H           15.515565        2.747097       22.545233
  H           15.460762        4.523568       22.538391
  H           15.842791        3.683578       24.050466
  C           33.001565       17.374332        1.801704
  C           33.847159       18.617165        1.957070
  O           34.861068       18.416695        2.944390
  C           34.482115       18.675536        4.224232
  O           33.387862       19.057048        4.589416
  O           35.547180       18.436259        5.028584
  C           35.292479       18.672492        6.413547
  H           33.631666       16.506085        1.560828
  H           32.262125       17.504698        0.999998
  H           32.473398       17.137017        2.723127
  H           34.364488       18.835156        1.007201
  H           33.228947       19.498509        2.181002
  H           35.026192       19.726101        6.586750
  H           36.207174       18.454128        6.969200
  H           34.502777       18.011533        6.776735
  C           30.390939       29.803206       20.981752
  C           31.619752       29.407636       21.767464
  O           32.681157       29.031213       20.887280
  C           32.674773       27.729013       20.496340
  O           31.869830       26.880744       20.826199
  O           33.733705       27.538526       19.671127
  C           33.854895       26.202413       19.182338
  H           30.629155       30.607967       20.271461
  H           29.595255       30.152206       21.653754
  H           30.008270       28.968139       20.398205
  H           31.980258       30.271121       22.352124
  H           31.393526       28.615058       22.495298
  H           34.000521       25.495229       20.012810
  H           34.733078       26.156087       18.534457
  H           32.977364       25.928219       18.593138
  C           19.431272       26.406688       31.155841
  C           18.228384       26.870245       31.944496
  O           17.454414       25.752833       32.386494
  C           16.530715       25.300357       31.497312
  O           16.309562       25.755215       30.392551
  O           15.890867       24.247492       32.063589
  C           14.881362       23.669076       31.235860
  H           20.036932       25.707675       31.750363
  H           20.060549       27.259977       30.868773
  H           19.132847       25.878531       30.252352
  H           18.562001       27.406109       32.849454
  H           17.621467       27.584293       31.369269
  H           14.093351       24.403622       31.011183
  H           14.429707       22.837721       31.781713
  H           15.317815       23.279177       30.313967
  C           29.466541       37.557270       34.713357
  C           30.099838       38.924958       34.823646
  O           30.955529       39.175672       33.706535
  C           32.229956       38.721104       33.839959
  O           32.691936       38.141196       34.802550
  O           32.902709       39.033554       32.704891
  C           34.268073       38.615727       32.706479
  H           28.925150       37.457931       33.761555
  H           28.760973       37.387709       35.537932
  H           30.217769       36.770183       34.734560
  H           29.314746       39.700003       34.805312
  H           30.630784       39.046185       35.778895
  H           34.824490       39.104934       33.520160
  H           34.716021       38.915142       31.756325
  H           34.336872       37.529326       32.792501
  C           24.789213       29.001510       11.692919
  C           25.687565       30.162383       11.333560
  O           27.050110       29.738502       11.251117
  C           27.731502       29.747776       12.427646
  O           27.295051       30.081279       13.511429
  O           28.994251       29.320895       12.178975
  C           29.831772       29.283311       13.334806
  H           24.912231       28.180379       10.972148
  H           23.735441       29.311442       11.695518
  H           25.033563       28.600896       12.674806
  H           25.412526       30.550077       10.337846
  H           25.562997       30.999369       12.035726
  H           29.943085       30.288603       13.768395
  H           30.819020       28.931082       13.027600
  H           29.432772       28.587096       14.075402
  C           22.059055       27.430793        9.262523
  C           21.789925       27.123931       10.717585
  O           22.986166       27.252200       11.489308
  C           23.766664       26.139912       11.536616
  O           23.537952       25.074756       10.998625
  O           24.851364       26.426468       12.298135
  C           25.764708       25.338022       12.439164
  H           22.502346       28.431137        9.154329
  H           21.129333       27.393787        8.678787
  H           22.764956       26.722895        8.832542
  H           21.068008       27.853091       11.123246
  H           21.329771       26.132897       10.840911
  H           25.278765       24.482818       12.932605
  H           26.594511       25.670098       13.067059
  H           26.164859       25.044307       11.466533
  C           35.267184       29.740019       23.450874
  C           35.051057       30.881179       24.417747
  O           33.696162       30.906848       24.872282
  C           32.831715       31.591994       24.077356
  O           33.105814       32.172387       23.045700
  O           31.601334       31.518302       24.642451
  C           30.584946       32.203425       23.910084
  H           34.979018       28.783977       23.911138
  H           36.321569       29.680543       23.148822
  H           34.658141       29.857867       22.556739
  H           35.684757       30.737140       25.309417
  H           35.351545       31.843090       23.977823
  H           30.811233       33.278174       23.841458
  H           29.641160       32.085278       24.447122
  H           30.471172       31.770028       22.914282
  C           29.933217       38.344636       14.375763
  C           29.300698       37.482902       13.307525
  O           30.304375       36.828191       12.528431
  C           30.782478       37.547088       11.478096
  O           30.435415       38.664684       11.151253
  O           31.718402       36.792625       10.850855
  C           32.308467       37.426414        9.715543
  H           30.605650       37.746003       15.006930
  H           29.164077       38.799191       15.014750
  H           30.533288       39.140377       13.938714
  H           28.695380       36.690636       13.780076
  H           28.611171       38.064105       12.678354
  H           31.547414       37.643437        8.950886
  H           33.040655       36.739421        9.285379
  H           32.826798       38.340487       10.012534
  C            4.435885       13.032782       21.665905
  C            3.604286       12.660546       20.460217
  O            4.281121       11.686728       19.662362
  C            5.146807       12.191519       18.743463
  O            5.383478       13.366562       18.544566
  O            5.701594       11.147773       18.079079
  C            6.637087       11.533117       17.071526
  H            4.688586       12.137571       22.252113
  H            3.891145       13.733758       22.312736
  H            5.376127       13.494669       21.371107
  H            2.657037       12.201022       20.790304
  H            3.328340       13.548139       19.872737
  H            6.147682       12.144753       16.298620
  H            7.020463       10.625928       16.599160
  H            7.477189       12.072473       17.513933
  C           13.326644        9.194974       27.156286
  C           12.251766        8.637281       26.252175
  O           11.629625        7.498682       26.851786
  C           12.251744        6.311554       26.623110
  O           13.259746        6.140041       25.966744
  O           11.543943        5.343663       27.256202
  C           12.085069        4.031870       27.097519
  H           12.912016        9.437302       28.145357
  H           13.762880       10.106401       26.725590
  H           14.124579        8.472261       27.315304
  H           11.461477        9.393093       26.105239
  H           12.647363        8.406215       25.252570
  H           12.095128        3.740062       26.036507
  H           11.444677        3.332416       27.639516
  H           13.090172        3.977526       27.520859
  C           22.455999       21.896575        3.086554
  C           23.076651       22.614791        1.910647
  O           23.257966       24.001544        2.205671
  C           22.182183       24.793067        1.951144
  O           21.112058       24.433332        1.502008
  O           22.514844       26.064700        2.284140
  C           21.471138       27.013789        2.063437
  H           23.064388       22.039279        3.991208
  H           22.373411       20.819935        2.885246
  H           21.463189       22.283489        3.307744
  H           24.077660       22.197629        1.707285
  H           22.488590       22.466851        0.993369
  H           21.198275       27.052434        0.998049
  H           21.839538       27.998674        2.359045
  H           20.598988       26.774384        2.675351
  C           10.440039        4.773047        7.334861
  C            9.874361        3.641754        6.507827
  O            8.458871        3.548326        6.682920
  C            8.054854        2.798641        7.742799
  O            8.773765        2.213513        8.528351
  O            6.699238        2.813787        7.768805
  C            6.131334        2.056761        8.838009
  H            9.940478        5.720460        7.086371
  H           11.517487        4.886255        7.153781
  H           10.284884        4.602115        8.398351
  H           10.051667        3.840183        5.437039
  H           10.376436        2.689609        6.732416
  H            6.410304        0.995469        8.755334
  H            5.043934        2.132038        8.767346
  H            6.442658        2.462185        9.802949
  C           19.251235       17.971206       29.483890
  C           17.812548       18.206100       29.085391
  O           16.995581       17.098366       29.470735
  C           16.939296       16.080067       28.571570
  O           17.503817       16.034902       27.496592
  O           16.133824       15.117591       29.084850
  C           15.978633       13.978783       28.237601
  H           19.325678       17.772420       30.562705
  H           19.869052       18.847385       29.244906
  H           19.667497       17.105509       28.972426
  H           17.420798       19.091594       29.614384
  H           17.723438       18.423931       28.011282
  H           15.518276       14.265209       27.279983
  H           15.315178       13.270444       28.738781
  H           16.941010       13.490498       28.070839
  C            5.475839       38.141593       21.887147
  C            4.072233       38.610605       22.193282
  O            3.131813       37.997562       21.308529
  C            2.946032       38.640669       20.125102
  O            3.491636       39.665816       19.767764
  O            2.035552       37.936141       19.408676
  C            1.737595       38.503019       18.132483
  H            5.535368       37.044701       21.933894
  H            6.192084       38.562979       22.605427
  H            5.780864       38.433296       20.884067
  H            3.794069       38.305906       23.216601
  H            4.000466       39.707554       22.167753
  H            1.306511       39.509364       18.244002
  H            0.998451       37.865735       17.641938
  H            2.633024       38.535226       17.508328
  C           25.065037        5.485973       32.885141
  C           25.096708        4.093551       33.471620
  O           23.893046        3.823276       34.193527
  C           23.893788        4.226492       35.491994
  O           24.806313        4.776489       36.076033
  O           22.691235        3.901836       36.027779
  C           22.550939        4.266398       37.401173
  H           24.176980        5.617613       32.250376
  H           25.961238        5.672852       32.278181
  H           25.012406        6.243052       33.665117
  H           25.155884        3.349783       32.658782
  H           25.989131        3.940406       34.095502
  H           23.297021        3.746284       38.020723
  H           21.556245        3.961258       37.733700
  H           22.637633        5.348208       37.521878
  C            9.743746       22.561058        7.769465
  C            9.670007       23.800891        6.908550
  O           10.286062       24.909500        7.567688
  C            9.475876       25.606380        8.408257
  O            8.304701       25.377028        8.636390
  O           10.206399       26.612636        8.948985
  C            9.475226       27.436599        9.857430
  H           10.786339       22.339843        8.039584
  H            9.326907       21.694053        7.239326
  H            9.195919       22.692366        8.700563
  H           10.228329       23.635635        5.971337
  H            8.634347       24.025491        6.615182
  H            8.633468       27.928183        9.346756
  H           10.148920       28.210849       10.231292
  H            9.119863       26.849713       10.706948
  C           13.438961       10.346545       30.891891
  C           14.508431       10.939635       30.004041
  O           15.330893        9.910538       29.449500
  C           16.377467        9.524095       30.226640
  O           16.668194        9.969940       31.318885
  O           17.048563        8.549841       29.564024
  C           18.185234        8.047568       30.267231
  H           12.841352        9.609161       30.336887
  H           12.767864       11.130086       31.268974
  H           13.874364        9.826164       31.742730
  H           14.037319       11.464445       29.155496
  H           15.103962       11.692582       30.540244
  H           18.922580        8.846513       30.437548
  H           18.651996        7.275751       29.651170
  H           17.882008        7.595880       31.214032
  C           15.346043       10.227765       35.861933
  C           14.425170        9.714754       34.779061
  O           14.234964       10.706611       33.767605
  C           13.236376       11.596858       34.010261
  O           12.508990       11.617449       34.983291
  O           13.189785       12.462263       32.967427
  C           12.175182       13.459838       33.086696
  H           16.304336       10.552919       35.431991
  H           15.543152        9.445719       36.607622
  H           14.917921       11.089437       36.370395
  H           14.882614        8.839675       34.286739
  H           13.468145        9.369012       35.195793
  H           11.177243       12.997876       33.128036
  H           12.221062       14.098484       32.201751
  H           12.348629       14.080155       33.968469
  C           19.447215       32.934791       32.040903
  C           19.196607       32.109058       30.800274
  O           17.895213       32.374888       30.272345
  C           16.890257       31.632313       30.808299
  O           17.001564       30.782378       31.669414
  O           15.733325       32.004767       30.207144
  C           14.583823       31.297675       30.673475
  H           19.310620       34.004589       31.826951
  H           20.469130       32.778705       32.412155
  H           18.748614       32.678450       32.834972
  H           19.922278       32.386693       30.016872
  H           19.346632       31.037089       30.993856
  H           14.682348       30.219690       30.475379
  H           13.712803       31.668319       30.128454
  H           14.426923       31.480188       31.738591
  C            6.568110        9.077665       22.032306
  C            5.537407        9.452553       23.071973
  O            5.712359        8.674852       24.258385
  C            5.081302        7.470540       24.259490
  O            4.396371        7.014215       23.365657
  O            5.347523        6.863892       25.442580
  C            4.739821        5.579716       25.585376
  H            7.583938        9.186610       22.438662
  H            6.474903        9.716983       21.144001
  H            6.459687        8.039794       21.723489
  H            5.668536       10.509479       23.360264
  H            4.515773        9.365590       22.674730
  H            3.643309        5.659936       25.538195
  H            5.012730        5.181863       26.565342
  H            5.108489        4.893435       24.820195
  C            1.685743       14.821568        9.660157
  C            2.395194       16.155634        9.687510
  O            3.210726       16.316663        8.524765
  C            4.463994       15.798213        8.620310
  O            4.938286       15.230585        9.584233
  O            5.099494       16.030200        7.445184
  C            6.439364       15.538443        7.403662
  H            1.096652       14.716221        8.737783
  H            1.010823       14.722229       10.521038
  H            2.394282       13.995809        9.679995
  H            1.652366       16.971343        9.672505
  H            2.975186       16.283522       10.612903
  H            7.057802       16.026753        8.171834
  H            6.858425       15.776742        6.423508
  H            6.454242       14.453927        7.530168
  C           34.199974        8.994377        7.197534
  C           34.111595        7.504652        6.959399
  O           32.983985        6.951277        7.641508
  C           33.206560        6.596961        8.935154
  O           34.253851        6.702562        9.542055
  O           32.048716        6.097193        9.433382
  C           32.136958        5.677311       10.795260
  H           33.265343        9.489623        6.897374
  H           35.028689        9.431431        6.624197
  H           34.353388        9.218506        8.251351
  H           33.962275        7.308995        5.883842
  H           35.046125        6.996866        7.238517
  H           32.876034        4.869682       10.907072
  H           31.160028        5.292228       11.095960
  H           32.388417        6.520888       11.441437
  C           22.080321       14.942333       31.501587
  C           22.732921       14.162843       32.619759
  O           23.452191       13.042360       32.099981
  C           22.715531       11.913538       31.921958
  O           21.532807       11.778154       32.165136
  O           23.537390       10.955878       31.425940
  C           22.893034        9.703456       31.191322
  H           22.829502       15.254146       30.759697
  H           21.579548       15.838279       31.892749
  H           21.344528       14.338028       30.974592
  H           23.467896       14.802109       33.137977
  H           21.998550       13.858736       33.379573
  H           22.493614        9.288845       32.129171
  H           23.636999        9.007140       30.797927
  H           22.098524        9.813478       30.450343
  C           29.424838       38.669798        7.032900
  C           30.642650       38.788995        6.146036
  O           30.257314       38.923014        4.776162
  C           30.054443       37.752607        4.114654
  O           30.174557       36.634176        4.573984
  O           29.696068       38.052372        2.841740
  C           29.452828       36.908053        2.023103
  H           28.754293       39.528640        6.885722
  H           29.716704       38.629564        8.091057
  H           28.850668       37.775417        6.798999
  H           31.206359       39.699956        6.410197
  H           31.332229       37.945501        6.294689
  H           30.360624       36.292454        1.933964
  H           29.175558       37.256652        1.025756
  H           28.625971       36.318137        2.423985
  C           20.952954       39.064341       27.921033
  C           19.668295       38.615214       27.263967
  O           19.944252       37.809361       26.116165
  C           20.139719       38.496841       24.959548
  O           20.095771       39.703165       24.821155
  O           20.390004       37.595097       23.978317
  C           20.612913       38.181056       22.695444
  H           21.578446       38.197635       28.178871
  H           20.743228       39.631197       28.838197
  H           21.540432       39.692202       27.253980
  H           19.092907       37.986799       27.964983
  H           19.023382       39.470551       27.015802
  H           19.724265       38.737547       22.361345
  H           20.801319       37.375527       21.982193
  H           21.488751       38.832817       22.718157
  C           21.203593       24.090365        6.088917
  C           21.409460       25.447301        5.456349
  O           22.320506       25.358589        4.358567
  C           23.635701       25.460114        4.688046
  O           24.089581       25.620653        5.803627
  O           24.358750       25.354594        3.545827
  C           25.769945       25.448253        3.742183
  H           20.860720       23.362767        5.339290
  H           20.456644       24.145066        6.892394
  H           22.131192       23.702983        6.505804
  H           20.452623       25.815759        5.048791
  H           21.735843       26.190981        6.197641
  H           26.039989       26.425570        4.169884
  H           26.255387       25.354193        2.768222
  H           26.122963       24.637380        4.382701
  C           23.695749       18.905584       12.041543
  C           23.463925       19.824682       13.218537
  O           24.300737       19.457110       14.317462
  C           23.792833       18.497969       15.136414
  O           22.716598       17.946129       15.020270
  O           24.701270       18.265220       16.115787
  C           24.295260       17.273553       17.059477
  H           24.757491       18.904120       11.755885
  H           23.099700       19.224415       11.175765
  H           23.430961       17.878097       12.283327
  H           23.735116       20.857748       12.941713
  H           22.402711       19.850609       13.505333
  H           23.376901       17.583925       17.580330
  H           25.089935       17.164694       17.800923
  H           24.150553       16.310373       16.565771
  C           32.433953       21.469674       23.969803
  C           33.935473       21.428299       23.803891
  O           34.587528       21.719821       25.041970
  C           34.785175       23.040967       25.295169
  O           34.468687       23.968376       24.576804
  O           35.405731       23.144756       26.496309
  C           35.681892       24.488601       26.892058
  H           32.114095       20.780947       24.764941
  H           31.931404       21.184909       23.035537
  H           32.094359       22.463369       24.255366
  H           34.248401       20.412103       23.509238
  H           34.269606       22.099409       22.999486
  H           36.355791       24.976430       26.171723
  H           36.180351       24.460965       27.863590
  H           34.754850       25.056104       26.996610
  C           38.040890       19.681655       22.590537
  C           37.186462       20.864654       22.197771
  O           37.962569       22.064864       22.185342
  C           38.061494       22.702750       23.381968
  O           37.556384       22.352517       24.430062
  O           38.824312       23.808987       23.200446
  C           39.011226       24.585059       24.384327
  H           38.908642       19.592764       21.921206
  H           37.461704       18.749721       22.540115
  H           38.429724       19.792121       23.600936
  H           36.802739       20.721409       21.173253
  H           36.304214       20.956635       22.847601
  H           38.046848       24.954153       24.764781
  H           39.632468       25.446992       24.130888
  H           39.527976       24.000866       25.148583
  C           37.278790       24.432059       33.824982
  C           38.087993       23.901865       32.663997
  O           37.321406       22.968169       31.900090
  C           37.364007       21.683749       32.343993
  O           37.984756       21.272559       33.304146
  O           36.590698       20.934301       31.520026
  C           36.545094       19.550145       31.867635
  H           36.339317       24.878744       33.468944
  H           37.843822       25.195765       34.376336
  H           37.009430       23.635889       34.516255
  H           38.350492       24.731160       31.985201
  H           39.039635       23.467299       33.002569
  H           37.548633       19.101686       31.814781
  H           35.902958       19.039765       31.146335
  H           36.116981       19.418440       32.863513
  C            4.272170       11.681743       34.379239
  C            4.191357       13.190802       34.382025
  O            4.192453       13.693076       35.720203
  C            2.971501       13.759193       36.314765
  O            1.909070       13.441860       35.817934
  O            3.146025       14.248779       37.567141
  C            1.935509       14.377002       38.313473
  H            5.157016       11.341302       34.936059
  H            4.334427       11.297459       33.352132
  H            3.403627       11.237801       34.861785
  H            5.080690       13.610973       33.882080
  H            3.320405       13.547713       33.813557
  H            1.245255       15.077302       37.819379
  H            2.184571       14.778433       39.298318
  H            1.462761       13.401971       38.448470
  C           16.263578        4.162740       29.277820
  C           17.435458        5.030795       28.881616
  O           16.995065        6.347267       28.541091
  C           16.607005        6.511658       27.248426
  O           16.607679        5.660596       26.381250
  O           16.219999        7.801812       27.092447
  C           15.786594        8.121304       25.769993
  H           15.701864        4.624943       30.102288
  H           16.606164        3.169970       29.599600
  H           15.567107        4.036345       28.451230
  H           18.125383        5.135522       29.736272
  H           18.018072        4.573128       28.069089
  H           16.601363        7.970899       25.045749
  H           15.501475        9.175563       25.751391
  H           14.914318        7.523749       25.497117
  C           23.078969       23.065221       24.736482
  C           23.815785       23.157291       26.052699
  O           25.178711       22.756025       25.896432
  C           25.406277       21.420779       26.014468
  O           24.574449       20.564434       26.240379
  O           26.734111       21.209269       25.839196
  C           27.121352       19.838707       25.941202
  H           23.588293       23.661950       23.966155
  H           22.048954       23.432210       24.840829
  H           23.044939       22.040170       24.372599
  H           23.828578       24.205043       26.398317
  H           23.308425       22.579351       26.838620
  H           26.891725       19.442183       26.941722
  H           28.201166       19.778526       25.787973
  H           26.630198       19.242648       25.169269
  C           17.601288       12.139265       39.027222
  C           17.951218       11.691093       37.627047
  O           17.374583       10.413355       37.347985
  C           18.121175        9.344538       37.733771
  O           19.208248        9.381674       38.275243
  O           17.438549        8.220662       37.402825
  C           18.111990        7.010125       37.749057
  H           16.510894       12.150517       39.167987
  H           17.990785       13.147739       39.221575
  H           18.010468       11.461430       39.773822
  H           17.528720       12.399485       36.894192
  H           19.038791       11.691493       37.464921
  H           19.074025        6.934251       37.220159
  H           17.483767        6.171648       37.440201
  H           18.261061        6.949270       38.829092
  C            2.194626        6.068858       27.800472
  C            3.259696        7.126868       27.973793
  O            2.674597        8.430585       28.005099
  C            2.485206        9.009500       26.789538
  O            2.767784        8.529131       25.709863
  O            1.925647       10.227734       26.993006
  C            1.671967       10.957163       25.792015
  H            1.436415        6.150682       28.592508
  H            2.635258        5.063435       27.838804
  H            1.674938        6.181959       26.851035
  H            3.771867        6.982979       28.940425
  H            4.035520        7.046942       27.198675
  H            2.609166       11.152864       25.249465
  H            1.226915       11.916617       26.064919
  H            0.965634       10.417929       25.157414
  C           20.613038       20.477881       36.379681
  C           21.013270       21.509404       35.350325
  O           19.940948       21.752441       34.437056
  C           19.883535       20.907374       33.373494
  O           20.647405       19.992583       33.136935
  O           18.819760       21.268193       32.614026
  C           18.638134       20.461484       31.449967
  H           19.699779       20.791245       36.905667
  H           21.412745       20.335616       37.119093
  H           20.397768       19.517635       35.915047
  H           21.230431       22.468374       35.850942
  H           21.935796       21.218503       34.827428
  H           19.511218       20.535613       30.784213
  H           17.763746       20.833953       30.911624
  H           18.454039       19.421792       31.728445
  C           35.380633       23.882290        8.990540
  C           34.754503       22.760529        9.786413
  O           34.193964       23.257986       11.003513
  C           35.059349       23.338402       12.049095
  O           36.233827       23.027274       12.039000
  O           34.377736       23.825981       13.115055
  C           35.168384       23.961206       14.296322
  H           34.645627       24.677398        8.799569
  H           35.756465       23.512781        8.026842
  H           36.207532       24.338089        9.531636
  H           33.925075       22.315261        9.210926
  H           35.472935       21.948718        9.970580
  H           35.556369       22.983522       14.619744
  H           34.529407       24.355996       15.089385
  H           35.987273       24.664549       14.131616
  C           10.653462       11.175869       18.872739
  C            9.501701       10.788926       19.771362
  O            8.405821       11.690921       19.602690
  C            8.454934       12.811656       20.370896
  O            9.323423       13.101136       21.169789
  O            7.355358       13.554351       20.091726
  C            7.272681       14.770211       20.835802
  H           10.326866       11.220510       17.823815
  H           11.472276       10.448334       18.954824
  H           11.040219       12.160874       19.126674
  H            9.135605        9.785654       19.494200
  H            9.816865       10.722761       20.822739
  H            7.219598       14.563697       21.915401
  H            6.357321       15.287751       20.540220
  H            8.122637       15.417286       20.609374
  C           33.573199       38.301749       12.806434
  C           34.204696       37.056717       12.227723
  O           33.368345       35.918641       12.447501
  C           33.544749       35.292457       13.641392
  O           34.333983       35.605563       14.510515
  O           32.683087       34.246742       13.692562
  C           32.761509       33.489400       14.900486
  H           32.567684       38.454700       12.388768
  H           34.184119       39.187091       12.584067
  H           33.459637       38.223034       13.885882
  H           34.311968       37.168476       11.135293
  H           35.218746       36.899550       12.622819
  H           33.762933       33.049163       15.020242
  H           32.034553       32.676434       14.839486
  H           32.509922       34.112538       15.761185
  C           27.322236       28.563291        5.528984
  C           28.470334       28.144400        4.640052
  O           29.289973       29.268537        4.312169
  C           28.885873       29.983187        3.228390
  O           27.918054       29.751293        2.531359
  O           29.759887       31.005481        3.056300
  C           29.458240       31.844714        1.941178
  H           27.696687       29.065427        6.432614
  H           26.727392       27.691326        5.832853
  H           26.666492       29.268961        5.022694
  H           29.112804       27.426160        5.177418
  H           28.112518       27.624564        3.739586
  H           29.490028       31.271718        1.002208
  H           30.217500       32.628338        1.890614
  H           28.482702       32.318153        2.069948
  C            8.800213       31.474450       21.857303
  C            9.330033       30.944274       23.169555
  O            8.764330       31.662254       24.268411
  C            9.421247       32.800874       24.615693
  O           10.422766       33.244753       24.090115
  O            8.761938       33.357474       25.661690
  C            9.348211       34.569133       26.138102
  H            7.701528       31.435641       21.840409
  H            9.185359       30.883684       21.015188
  H            9.083162       32.514510       21.707258
  H            9.032793       29.888602       23.290410
  H           10.429214       30.960151       23.195045
  H           10.372263       34.390933       26.499435
  H            8.747230       34.931006       26.975341
  H            9.343513       35.331186       25.356019
  C           14.834255       20.068506       33.120370
  C           15.900948       19.403769       33.959472
  O           15.834248       19.859177       35.312674
  C           16.526600       20.999659       35.574494
  O           17.182945       21.643547       34.780190
  O           16.359750       21.293947       36.887565
  C           17.041001       22.476330       37.307882
  H           13.838678       19.896576       33.554151
  H           14.843535       19.673796       32.095373
  H           14.979308       21.146161       33.076550
  H           15.731100       18.313759       33.980215
  H           16.901676       19.551923       33.528552
  H           18.127389       22.370983       37.167650
  H           16.845076       22.620884       38.372690
  H           16.666192       23.347925       36.767289
  C           12.220617       20.384517       22.715413
  C           13.039028       19.776627       21.599854
  O           13.251189       20.727949       20.554400
  C           12.266374       20.789475       19.619009
  O           11.252699       20.120057       19.593667
  O           12.616574       21.732176       18.709463
  C           11.667166       21.903174       17.656759
  H           12.701789       21.297779       23.093997
  H           12.109490       19.675650       23.547073
  H           11.228787       20.668742       22.369307
  H           14.034815       19.493870       21.981768
  H           12.579453       18.851840       21.222148
  H           11.550143       20.971888       17.082291
  H           12.042545       22.676767       16.983155
  H           10.705657       22.231702       18.056722
  C            1.630129        7.650820        8.187948
  C            2.224535        8.264502        6.941402
  O            2.937134        7.281972        6.186527
  C            4.233313        7.097919        6.553466
  O            4.822444        7.684492        7.439557
  O            4.760110        6.141421        5.749602
  C            6.130165        5.845308        6.021754
  H            0.986736        6.797552        7.929336
  H            1.030182        8.389195        8.736917
  H            2.405417        7.273630        8.851992
  H            1.416370        8.642310        6.292149
  H            2.857202        9.130966        7.182384
  H            6.759217        6.735117        5.868347
  H            6.455466        5.070830        5.323567
  H            6.245675        5.463275        7.038173
  C           28.927481       26.469827       21.567159
  C           29.936670       25.813609       22.480787
  O           30.518715       24.670449       21.850382
  C           29.825832       23.510425       22.001561
  O           28.786445       23.365557       22.613924
  O           30.503742       22.534313       21.348688
  C           29.887595       21.248608       21.426954
  H           29.390885       26.733033       20.605453
  H           28.525037       27.383705       22.024725
  H           28.098415       25.800151       21.346972
  H           30.760329       26.517265       22.690199
  H           29.492469       25.560112       23.454196
  H           29.822582       20.910476       22.472153
  H           30.509246       20.539886       20.875264
  H           28.897414       21.268909       20.967032
  C           36.441190       11.213368       15.239772
  C           37.681751       10.361435       15.101858
  O           38.258564       10.517600       13.803436
  C           37.751613        9.700061       12.842587
  O           36.878677        8.867935       12.990405
  O           38.397485        9.973653       11.682158
  C           37.965637        9.179320       10.577014
  H           36.670495       12.267117       15.025454
  H           36.032045       11.142919       16.256697
  H           35.670151       10.907008       14.535541
  H           38.441373       10.691279       15.830951
  H           37.472299        9.306462       15.330471
  H           38.149378        8.111454       10.769109
  H           38.545154        9.474591        9.699475
  H           36.908687        9.356013       10.367167
  C           14.756574       10.146357        6.271246
  C           13.638437        9.592197        7.123582
  O           13.405784        8.215663        6.816945
  C           12.551541        7.989052        5.783739
  O           11.981038        8.832704        5.121110
  O           12.442424        6.647153        5.622495
  C           11.565452        6.259723        4.564375
  H           15.669866        9.546718        6.394659
  H           14.978774       11.185630        6.548805
  H           14.499560       10.118857        5.214133
  H           13.925272        9.638603        8.187994
  H           12.722315       10.192199        7.024497
  H           10.541891        6.615271        4.756494
  H           11.546941        5.168453        4.520924
  H           11.929960        6.636418        3.606443
  C           25.221741        9.531824       14.405160
  C           24.574977       10.820803       14.856857
  O           23.182735       10.623290       15.113085
  C           22.370931       10.750780       14.029886
  O           22.717462       11.016049       12.895933
  O           21.096563       10.533014       14.438744
  C           20.126904       10.639489       13.396043
  H           25.057947        8.736881       15.146872
  H           26.303186        9.666525       14.267929
  H           24.795595        9.182631       13.466670
  H           25.030793       11.152174       15.805448
  H           24.745170       11.631018       14.133195
  H           20.126828       11.652322       12.965732
  H           19.141601       10.450260       13.827865
  H           20.312685        9.892571       12.621447
  C           12.445507       24.973416       21.187849
  C           12.630650       23.599739       20.585742
  O           13.268771       22.723112       21.517047
  C           14.627811       22.762900       21.511836
  O           15.326464       23.456365       20.799594
  O           15.072038       21.884077       22.444002
  C           16.494653       21.817300       22.546506
  H           11.883094       24.909374       22.130447
  H           11.899651       25.630433       20.497291
  H           13.402655       25.436089       21.420443
  H           11.645408       23.159517       20.355734
  H           13.176680       23.648953       19.632573
  H           16.938774       21.484799       21.596138
  H           16.745676       21.085018       23.317123
  H           16.903806       22.784875       22.844488
  C           24.281884       18.339901       24.657479
  C           23.109836       17.403232       24.476495
  O           23.401704       16.118028       25.029726
  C           24.045396       15.260482       24.193738
  O           24.379431       15.485085       23.047320
  O           24.247755       14.100063       24.865362
  C           24.917178       13.096876       24.100974
  H           24.558156       18.412213       25.719244
  H           24.036777       19.345296       24.289236
  H           25.160747       17.981977       24.124759
  H           22.234249       17.794747       25.021897
  H           22.810029       17.333885       23.420840
  H           24.325329       12.822355       23.214773
  H           25.027622       12.209338       24.728013
  H           25.912414       13.437781       23.808246
  C           36.375487       10.464831       34.688802
  C           35.001985       10.110872       34.167262
  O           35.095510        9.483887       32.886191
  C           35.132905       10.334892       31.826477
  O           35.089411       11.548223       31.873776
  O           35.223547        9.588445       30.698115
  C           35.268134       10.357729       29.496028
  H           37.017243        9.572724       34.723349
  H           36.310142       10.889651       35.699622
  H           36.870575       11.186820       34.042334
  H           34.523766        9.383402       34.845122
  H           34.342227       10.990216       34.143345
  H           34.349846       10.952914       29.379833
  H           35.337938        9.666749       28.652954
  H           36.148730       11.003369       29.485999
  C            8.157664       11.363831       10.101123
  C            6.869370       11.829173        9.462721
  O            6.467916       13.091405        9.999940
  C            5.725685       13.026862       11.137273
  O            5.379774       12.016376       11.716552
  O            5.432360       14.296064       11.513684
  C            4.646219       14.381223       12.702603
  H            8.944874       12.121690        9.979265
  H            8.500591       10.425037        9.645529
  H            8.034412       11.203684       11.170451
  H            7.023842       11.976949        8.380270
  H            6.076384       11.073771        9.560902
  H            3.673691       13.885481       12.563210
  H            4.465484       15.437232       12.915392
  H            5.181866       13.946125       13.548873
  C           38.763933       36.717359       26.713807
  C           38.027816       37.056668       27.989268
  O           37.788172       35.878087       28.761614
  C           36.653854       35.198832       28.444542
  O           35.846628       35.502434       27.588673
  O           36.576802       34.117275       29.258728
  C           35.422305       33.306549       29.038135
  H           39.700004       36.185856       26.937806
  H           39.003992       37.628412       26.149136
  H           38.172010       36.062644       26.077195
  H           38.649118       37.724740       28.609803
  H           37.097152       37.604620       27.782596
  H           34.501833       33.879769       29.225617
  H           35.454907       32.470754       29.740619
  H           35.424468       32.903690       28.023196
  C           25.643892        6.149161       27.012956
  C           25.272171        5.571241       28.358925
  O           25.802452        6.374079       29.415927
  C           27.075545        6.074582       29.787592
  O           27.779089        5.203938       29.315040
  O           27.425268        6.920138       30.788257
  C           28.748635        6.715888       31.284020
  H           25.306152        7.192520       26.934005
  H           25.185284        5.569278       26.200605
  H           26.722433        6.153105       26.867927
  H           24.174855        5.575067       28.474170
  H           25.587945        4.521633       28.446736
  H           28.855479        5.704749       31.704950
  H           28.928075        7.440167       32.081718
  H           29.484315        6.883566       30.494679
  C           31.053682       17.030781       16.193102
  C           32.259354       17.939260       16.123670
  O           31.917304       19.263309       16.539476
  C           31.421208       20.067217       15.561610
  O           31.253607       19.766458       14.396383
  O           31.147711       21.274105       16.115885
  C           30.618815       22.228598       15.195010
  H           30.623696       17.036265       17.205022
  H           31.328427       15.999339       15.933984
  H           30.269983       17.360247       15.513715
  H           33.037241       17.577214       16.817367
  H           32.711660       17.930984       15.121447
  H           31.339577       22.433602       14.389109
  H           30.436906       23.159138       15.737325
  H           29.669997       21.879149       14.782663
  C           34.812698       25.412495       30.712754
  C           34.960090       26.907472       30.877436
  O           34.572533       27.310208       32.192960
  C           33.245398       27.557000       32.355455
  O           32.385926       27.472064       31.500824
  O           33.046329       27.921538       33.646224
  C           31.685554       28.217176       33.961960
  H           35.389578       24.880356       31.482778
  H           35.168810       25.093123       29.723974
  H           33.775378       25.102378       30.822728
  H           36.019175       27.191659       30.755054
  H           34.402549       27.454028       30.103146
  H           31.320508       29.062794       33.359738
  H           31.635046       28.499643       35.015886
  H           31.056606       27.337443       33.810648
  C           24.909496       18.496096        2.994671
  C           25.172184       17.639450        1.777727
  O           25.908096       16.467568        2.135675
  C           27.259335       16.616770        2.157897
  O           27.877421       17.630935        1.901503
  O           27.802215       15.426526        2.514549
  C           29.228755       15.434906        2.575486
  H           24.389625       17.915867        3.770537
  H           24.290863       19.365030        2.732476
  H           25.838154       18.853841        3.435026
  H           24.213975       17.297317        1.350900
  H           25.676418       18.210979        0.985134
  H           29.659633       15.669295        1.590394
  H           29.562158       14.436380        2.866842
  H           29.576629       16.147004        3.326685
  C            9.799421        8.657592        2.226052
  C            8.351297        8.229124        2.282201
  O            8.161631        7.223411        3.279983
  C            8.384843        5.947737        2.865939
  O            8.717102        5.599083        1.750438
  O            8.166360        5.124922        3.921326
  C            8.361777        3.741249        3.627962
  H           10.139032        9.001495        3.213622
  H            9.935766        9.474019        1.504001
  H           10.446092        7.830908        1.938459
  H            7.721109        9.087874        2.569970
  H            7.991413        7.898747        1.297094
  H            7.663317        3.406041        2.846432
  H            8.159832        3.169578        4.536538
  H            9.394598        3.555026        3.326297
  C           24.538574       32.458780       28.412984
  C           24.697205       32.775051       26.943763
  O           24.540900       34.176484       26.710196
  C           23.259990       34.593294       26.525426
  O           22.265571       33.895216       26.536229
  O           23.285348       35.933510       26.321028
  C           21.997540       36.511823       26.106776
  H           25.246271       33.048170       29.013554
  H           24.720044       31.392274       28.603072
  H           23.539532       32.707146       28.765873
  H           25.715777       32.507681       26.614484
  H           24.007659       32.179909       26.327784
  H           21.524490       36.087947       25.208136
  H           22.128711       37.585031       25.951478
  H           21.360827       36.365725       26.981792
  C           14.013164       17.700820        3.949098
  C           15.516861       17.800686        3.836309
  O           16.133598       16.568048        4.214781
  C           16.375864       16.426414        5.545137
  O           16.124921       17.237386        6.414420
  O           16.954803       15.214998        5.734608
  C           17.271063       14.930326        7.097598
  H           13.635700       16.860921        3.348273
  H           13.534615       18.625603        3.599430
  H           13.704327       17.519641        4.976763
  H           15.798486       17.989985        2.786426
  H           15.908198       18.647641        4.418221
  H           17.990949       15.663269        7.492008
  H           17.731271       13.940621        7.139941
  H           16.364911       14.915145        7.706743
  C           27.497696       38.107224        9.490813
  C           26.206971       37.500012        9.989935
  O           26.465670       36.306999       10.733436
  C           26.558160       35.171222        9.991778
  O           26.437749       35.085380        8.785780
  O           26.805831       34.141778       10.838834
  C           26.924611       32.874391       10.191978
  H           28.184895       38.295983       10.328086
  H           27.306138       39.056761        8.972947
  H           28.011053       37.437013        8.804095
  H           25.707548       38.203457       10.677789
  H           25.501589       37.321447        9.165526
  H           25.988683       32.610418        9.676849
  H           27.119687       32.119543       10.956995
  H           27.761634       32.878368        9.490711
  C           21.908903       28.717098       17.830003
  C           22.641724       27.492423       18.326936
  O           24.004297       27.510856       17.895596
  C           24.228696       26.981758       16.663403
  O           23.394365       26.503287       15.920935
  O           25.556635       27.077513       16.406481
  C           25.940683       26.552055       15.135576
  H           22.421918       29.633151       18.156443
  H           20.879331       28.736094       18.212261
  H           21.873885       28.743544       16.742633
  H           22.655610       27.490485       19.430206
  H           22.130662       26.567402       18.023206
  H           25.707050       25.478638       15.070827
  H           27.020850       26.674935       15.029563
  H           25.450739       27.101593       14.329125
  C           18.545025       23.196890       28.780097
  C           19.674769       22.966160       29.756951
  O           20.455403       24.153131       29.914143
  C           21.452489       24.315050       29.004087
  O           21.732110       23.555813       28.097627
  O           22.088714       25.478210       29.288475
  C           23.171571       25.777311       28.407136
  H           17.925132       24.046694       29.100202
  H           17.907347       22.305667       28.705348
  H           18.922263       23.435586       27.787618
  H           19.262074       22.720997       30.750419
  H           20.294082       22.107561       29.459700
  H           23.946957       24.998499       28.463969
  H           23.613825       26.725173       28.721889
  H           22.812506       25.888400       27.381889
  C           30.822209       15.888328       19.899817
  C           29.740127       16.940407       19.977450
  O           29.497394       17.314444       21.335455
  C           28.602592       16.535323       21.999460
  O           28.004605       15.578702       21.548253
  O           28.489096       17.017606       23.261649
  C           27.570823       16.291685       24.079338
  H           31.740632       16.241959       20.390066
  H           31.053836       15.645025       18.854038
  H           30.522890       14.974143       20.408713
  H           30.069508       17.851220       19.448936
  H           28.819855       16.608258       19.475578
  H           26.555292       16.334508       23.657601
  H           27.552224       16.758990       25.066445
  H           27.895905       15.255642       24.194820
  C           28.552780       24.154167        3.257311
  C           29.281567       23.252049        4.226255
  O           30.351626       23.954920        4.861822
  C           31.529133       23.954255        4.182059
  O           31.744842       23.417873        3.113385
  O           32.429607       24.658135        4.911647
  C           33.724256       24.737610        4.314682
  H           28.192666       25.058818        3.768020
  H           27.692115       23.634852        2.814517
  H           29.208172       24.483463        2.453367
  H           28.591384       22.930524        5.024797
  H           29.632910       22.333762        3.733906
  H           34.162144       23.734743        4.198440
  H           34.369019       25.318586        4.977893
  H           33.671811       25.248404        3.350971
  C           32.474334        7.832178       17.031523
  C           32.100706        8.546905       18.309555
  O           32.335829        7.708528       19.443063
  C           31.313099        6.873494       19.767625
  O           30.244598        6.785395       19.195922
  O           31.693808        6.153199       20.851524
  C           30.706509        5.228862       21.309389
  H           33.519143        7.491952       17.070519
  H           32.353455        8.496177       16.164923
  H           31.858493        6.948240       16.877598
  H           32.736618        9.439824       18.434905
  H           31.062922        8.909070       18.278887
  H           29.790840        5.756625       21.616012
  H           31.108679        4.705790       22.179880
  H           30.484202        4.490477       20.536235
  C           27.104111        1.840605       36.085319
  C           27.623495        3.256683       36.178936
  O           28.027818        3.731241       34.892734
  C           29.304953        3.427525       34.538781
  O           30.110764        2.809364       35.205748
  O           29.526641        3.942084       33.304000
  C           30.841486        3.700173       32.802541
  H           26.282953        1.777750       35.356863
  H           26.735060        1.496377       37.060926
  H           27.879913        1.155747       35.748568
  H           26.817895        3.925129       36.527632
  H           28.434237        3.339451       36.917141
  H           31.598222        4.164331       33.452855
  H           30.915948        4.153879       31.811730
  H           31.023775        2.627958       32.704947
  C           14.945803       29.613999       22.373963
  C           14.295907       30.064490       21.086138
  O           13.391310       29.068869       20.602979
  C           13.952913       28.104171       19.826731
  O           15.123864       28.021483       19.513144
  O           12.970763       27.245688       19.456616
  C           13.419848       26.173705       18.627173
  H           14.182609       29.365172       23.125309
  H           15.593570       30.402955       22.779482
  H           15.545690       28.718701       22.222710
  H           13.700706       30.975240       21.269629
  H           15.047076       30.334042       20.329708
  H           13.841252       26.558926       17.686416
  H           12.558332       25.547086       18.385842
  H           14.153906       25.561499       19.155152
  C            3.973858       12.940013       30.041631
  C            3.961381       14.175535       29.171498
  O            5.284695       14.502410       28.741392
  C            5.998127       15.277152       29.601271
  O            5.615824       15.707617       30.671245
  O            7.218813       15.491459       29.051183
  C            8.081210       16.300955       29.851050
  H            4.443921       12.099115       29.511696
  H            2.951783       12.651195       30.321716
  H            4.548263       13.102329       30.951583
  H            3.367941       13.982596       28.261551
  H            3.478075       15.021396       29.681433
  H            7.648367       17.301541       30.000965
  H            9.029617       16.413465       29.320987
  H            8.278238       15.819395       30.811091
  C           31.534029        2.358057       24.958135
  C           30.558926        3.148083       25.800058
  O           29.246045        3.090776       25.237867
  C           28.981075        4.028009       24.289192
  O           29.741589        4.889061       23.893580
  O           27.708978        3.836297       23.860687
  C           27.289924        4.760727       22.856385
  H           31.191102        1.319898       24.841834
  H           32.529777        2.349018       25.421714
  H           31.622939        2.776662       23.957553
  H           30.494694        2.704298       26.808189
  H           30.897191        4.184900       25.940368
  H           27.316933        5.791807       23.239979
  H           26.259084        4.522818       22.584601
  H           27.912022        4.665997       21.963961
  C           17.977342       24.512602       18.577004
  C           16.677174       25.265587       18.739421
  O           16.844502       26.641364       18.389793
  C           17.281764       27.445214       19.395391
  O           17.530220       27.104639       20.534943
  O           17.389246       28.704069       18.903118
  C           17.839094       29.664179       19.859478
  H           18.362669       24.623583       17.553233
  H           17.836165       23.443345       18.784993
  H           18.743652       24.896420       19.247639
  H           15.919879       24.850929       18.052426
  H           16.269638       25.149691       19.754104
  H           17.132253       29.738191       20.699655
  H           17.888601       30.637485       19.366199
  H           18.838171       29.408941       20.218781
  C           29.940666       35.174272        8.683904
  C           31.169401       34.372292        8.322186
  O           32.197291       35.226244        7.815030
  C           32.133115       35.480162        6.480861
  O           31.303325       35.051008        5.703960
  O           33.166769       36.298648        6.164254
  C           33.226736       36.648478        4.781205
  H           30.194763       35.967879        9.401208
  H           29.172911       34.528917        9.131752
  H           29.514436       35.661851        7.809322
  H           31.574599       33.886181        9.226018
  H           30.928110       33.562699        7.618314
  H           33.362324       35.751804        4.157834
  H           34.088973       37.302534        4.633354
  H           32.327418       37.191530        4.483346
  C           27.206539       19.417212       13.912970
  C           27.177402       18.305208       12.890034
  O           28.257561       17.394166       13.105112
  C           29.429841       17.734382       12.506269
  O           29.630512       18.716043       11.818975
  O           30.342539       16.778062       12.807987
  C           31.631286       17.005750       12.236945
  H           27.188404       19.005060       14.932138
  H           26.342054       20.083243       13.788191
  H           28.114687       20.010652       13.826975
  H           26.244429       17.726130       12.997881
  H           27.177284       18.702260       11.864632
  H           31.573953       17.018840       11.138063
  H           32.285527       16.183948       12.536461
  H           32.057343       17.939021       12.610952
  C           31.328811       21.909418        6.882308
  C           32.455506       21.567075        5.935123
  O           32.049015       21.758692        4.578271
  C           31.422692       20.696231        4.005997
  O           31.190410       19.626269        4.532803
  O           31.103450       21.039062        2.733538
  C           30.437694       20.007352        2.004742
  H           30.977071       22.936602        6.708896
  H           31.658592       21.822837        7.926458
  H           30.473981       21.252312        6.734737
  H           33.308038       22.244735        6.112228
  H           32.830379       20.547937        6.108122
  H           31.078586       19.117227        1.915654
  H           30.229017       20.381646        1.000024
  H           29.488875       19.751963        2.481101
  C           13.758651       12.882344       38.759304
  C           12.636911       11.905762       39.027233
  O           13.129124       10.745478       39.701376
  C           13.610297        9.765541       38.890946
  O           13.651495        9.788982       37.676840
  O           14.035761        8.747353       39.678901
  C           14.567679        7.637373       38.955155
  H           14.271353       13.147846       39.695009
  H           13.372464       13.801177       38.297670
  H           14.508323       12.452514       38.097837
  H           11.891322       12.370962       39.694381
  H           12.102628       11.643806       38.102560
  H           13.802493        7.198028       38.297533
  H           14.876686        6.877930       39.676862
  H           15.443469        7.940061       38.377426
  C           12.828206       10.238209       21.786792
  C           13.920202       10.231984       20.742136
  O           14.420063        8.907717       20.543497
  C           15.413023        8.530349       21.392157
  O           15.901599        9.205422       22.276391
  O           15.769426        7.261051       21.075203
  C           16.815181        6.731666       21.890646
  H           12.023860        9.542005       21.508893
  H           12.400006       11.243817       21.895868
  H           13.205271        9.916688       22.755681
  H           13.509868       10.567358       19.774381
  H           14.724473       10.937094       20.997217
  H           17.733392        7.328614       21.783210
  H           17.026284        5.714173       21.554131
  H           16.503175        6.690838       22.936297
  C            9.011884       22.764673       26.387508
  C            8.000501       21.757913       25.890175
  O            6.766268       22.401627       25.565675
  C            5.903318       22.556421       26.604885
  O            6.084334       22.199587       27.752144
  O            4.794720       23.179336       26.134154
  C            3.791964       23.405733       27.125126
  H            9.157581       23.564016       25.646749
  H            9.979937       22.281903       26.578047
  H            8.677052       23.241330       27.306739
  H            8.369697       21.288229       24.962548
  H            7.856729       20.941917       26.613073
  H            3.435955       22.452561       27.544316
  H            2.947646       23.906244       26.645838
  H            4.173518       24.054977       27.915884
  C            9.631135        3.583522       33.003742
  C           10.765840        3.309961       32.043841
  O           10.558331        3.998875       30.808796
  C            9.801678        3.334396       29.895262
  O            9.305410        2.233935       30.033116
  O            9.699689        4.117389       28.792936
  C            8.928073        3.538709       27.740066
  H            9.510934        4.664981       33.161531
  H            9.819389        3.105846       33.974766
  H            8.684985        3.212737       32.614360
  H           11.710541        3.691084       32.467735
  H           10.910208        2.230906       31.889245
  H            9.386116        2.600911       27.391164
  H            8.910294        4.243008       26.905352
  H            7.900623        3.366414       28.067267
  C            8.441938       17.443770       12.381019
  C            9.859711       17.350022       11.866306
  O           10.368207       16.024115       12.028790
  C           10.931412       15.764276       13.238701
  O           11.041111       16.542425       14.165389
  O           11.356834       14.476820       13.230246
  C           11.978366       14.063540       14.447496
  H            7.800328       16.702897       11.882677
  H            8.027903       18.444960       12.200207
  H            8.393827       17.238020       13.448564
  H            9.877177       17.568882       10.785013
  H           10.510555       18.097273       12.342876
  H           12.875972       14.666698       14.651219
  H           12.283918       13.020812       14.335894
  H           11.274132       14.128916       15.279471
  C            6.946555       29.381758       17.843953
  C            6.749147       30.181293       19.111065
  O            6.712545       31.580880       18.823290
  C            7.924687       32.195398       18.782299
  O            9.005311       31.672385       18.969409
  O            7.716457       33.504823       18.498317
  C            8.913377       34.280138       18.427124
  H            6.163571       29.621310       17.110160
  H            6.912453       28.304283       18.054626
  H            7.901440       29.611752       17.375340
  H            5.777469       29.922772       19.565388
  H            7.514971       29.939644       19.862211
  H            9.441875       34.270781       19.392320
  H            8.636794       35.311595       18.197559
  H            9.562286       33.911955       17.629780
  C           22.602795        8.036897       26.624495
  C           22.980393        9.030627       25.550380
  O           24.306974        8.783529       25.079077
  C           25.296342        9.382032       25.794301
  O           25.152883       10.093175       26.768978
  O           26.480412        9.048429       25.223963
  C           27.617733        9.615307       25.875079
  H           22.713049        7.007480       26.254301
  H           21.562349        8.185672       26.943615
  H           23.247915        8.131388       27.495811
  H           22.306644        8.914859       24.684321
  H           22.858412       10.066022       25.899918
  H           27.577383       10.714564       25.843358
  H           28.512720        9.289406       25.340394
  H           27.685016        9.262547       26.906308
  O           13.888760       26.543740        3.569644
  C           12.678085       26.566708        3.695899
  O           11.988956       25.882207        4.658322
  C           10.643257       26.331493        4.596370
  C           10.541849       26.863832        3.203951
  F           10.253390       25.865905        2.327861
  O           11.843975       27.313280        2.906348
  H           10.511783       27.112261        5.348777
  H            9.962139       25.499309        4.775386
  H            9.798251       27.662160        3.091548
  O           24.542340       38.004014        6.578610
  C           24.064328       36.899455        6.395162
  O           24.743251       35.845041        5.850209
  C           23.912815       34.702625        5.998068
  C           22.552611       35.305080        6.137325
  F           22.007610       35.548409        4.916520
  O           22.785127       36.555546        6.744262
  H           24.224765       34.171479        6.900049
  H           23.997402       34.062153        5.119922
  H           21.857153       34.690246        6.721463
  O            7.083614        1.725695       30.908999
  C            6.973604        2.897120       31.221825
  O            6.238178        3.347172       32.283099
  C            6.532290        4.728783       32.428868
  C            7.018200        5.103403       31.066499
  F            5.974624        5.407334       30.250916
  O            7.603891        3.922559       30.567827
  H            7.310261        4.831227       33.188649
  H            5.633284        5.274658       32.715765
  H            7.725402        5.941714       31.067075
  O           26.006143       15.004600       27.836874
  C           25.493977       15.935887       28.430668
  O           24.481671       16.707320       27.930840
  C           24.034159       17.535264       28.994250
  C           25.216665       17.559640       29.907259
  F           26.098909       18.520016       29.525259
  O           25.843556       16.314612       29.699865
  H           23.166145       17.057190       29.453595
  H           23.778859       18.525299       28.615898
  H           24.955363       17.715176       30.961028
  O           11.285589       13.368209        4.472536
  C           11.906234       12.532323        3.841431
  O           11.944088       11.201238        4.152043
  C           12.593315       10.546779        3.071864
  C           13.382855       11.651950        2.449189
  F           14.576772       11.804050        3.080084
  O           12.625606       12.811627        2.709621
  H           11.824794       10.157641        2.400338
  H           13.226116        9.742401        3.447416
  H           13.562397       11.513481        1.376114
  O           23.340257       10.910311       39.061786
  C           23.063403        9.755848       38.792030
  O           23.177619        9.205391       37.545574
  C           22.960374        7.809756       37.692571
  C           22.182758        7.733983       38.966177
  F           20.857229        7.919836       38.731591
  O           22.630471        8.840792       39.714928
  H           23.934318        7.321843       37.772410
  H           22.401208        7.425993       36.839014
  H           22.319337        6.790941       39.509240
  O            4.603535        8.529984        0.963302
  C            3.807722        9.175240        1.620969
  O            4.048100       10.428801        2.111382
  C            2.817257       10.907498        2.633374
  C            2.062821        9.645041        2.897059
  F            2.386725        9.137251        4.115187
  O            2.545569        8.741288        1.929442
  H            2.340460       11.522405        1.866854
  H            2.994765       11.484646        3.541059
  H            0.973997        9.763203        2.838754
  O           30.536485       19.576990       39.703971
  C           31.130992       18.767451       39.015924
  O           32.489352       18.733804       38.862873
  C           32.793278       17.535894       38.163415
  C           31.504535       17.226022       37.473763
  F           31.416854       17.896840       36.295241
  O           30.515847       17.755820       38.326939
  H           33.063513       16.773979       38.897893
  H           33.610334       17.708604       37.462636
  H           31.352253       16.156135       37.286540
  O           21.209083       32.521947        6.549302
  C           20.792677       32.125905        5.476009
  O           21.226069       30.989397        4.851332
  C           20.360275       30.773530        3.746613
  C           19.806397       32.138394        3.495884
  F           20.643682       32.858738        2.704267
  O           19.804211       32.752672        4.764252
  H           19.589128       30.063783        4.054171
  H           20.925854       30.390373        2.897018
  H           18.807277       32.131137        3.043550
  O           20.349691       21.086734       22.419673
  C           20.122754       22.282787       22.407181
  O           18.987896       22.848115       21.895125
  C           19.015731       24.221398       22.255570
  C           20.470416       24.465780       22.493620
  F           21.106178       24.754575       21.327857
  O           20.964847       23.223416       22.938781
  H           18.421021       24.345538       23.163265
  H           18.618073       24.829821       21.443049
  H           20.669225       25.267195       23.215499
  O            4.756808        4.186052        8.033796
  C            3.682245        4.133779        7.463898
  O            2.972829        2.983208        7.257469
  C            1.702534        3.369876        6.754043
  C            1.976765        4.723682        6.184387
  F            2.453666        4.623592        4.915865
  O            3.021808        5.232587        6.981256
  H            1.003040        3.407193        7.592086
  H            1.367337        2.659385        5.998169
  H            1.102669        5.386144        6.184810
  O           36.206989       31.789419        4.047985
  C           35.191389       32.274427        4.512229
  O           34.971753       32.475398        5.846796
  C           33.779414       33.239039        5.955333
  C           33.091162       32.953345        4.660270
  F           32.368522       31.805514        4.743190
  O           34.141854       32.717033        3.751258
  H           34.058264       34.290572        6.052906
  H           33.200050       32.908032        6.817465
  H           32.433918       33.764197        4.323448
  O           19.239960       26.920106       18.541752
  C           18.852624       27.316056       17.457596
  O           18.689456       28.633517       17.129921
  C           18.429094       28.679463       15.734679
  C           17.913784       27.305245       15.454533
  F           16.580226       27.231802       15.705194
  O           18.559846       26.489647       16.405061
  H           19.371493       28.881088       15.220646
  H           17.692996       29.453456       15.516519
  H           18.102420       26.965579       14.428890
  O           22.026113       30.503815       20.137649
  C           21.701877       31.675534       20.073270
  O           20.473914       32.115526       19.663129
  C           20.429546       33.510280       19.926363
  C           21.876831       33.878551       19.973722
  F           22.350985       34.125200       18.724345
  O           22.518618       32.712989       20.438130
  H           19.933017       33.657938       20.887953
  H           19.894086       34.025001       19.128337
  H           22.089502       34.744356       20.612512
  O           12.726757       30.500323       33.203968
  C           13.406700       30.920467       34.122313
  O           13.252457       30.550299       35.429556
  C           14.354003       31.093985       36.142018
  C           14.786174       32.221371       35.261831
  F           14.060068       33.340034       35.522529
  O           14.444993       31.799383       33.961207
  H           15.118489       30.318530       36.227058
  H           14.032161       31.433397       37.126760
  H           15.852929       32.461560       35.346933
  O           37.315640       29.518353       34.999436
  C           36.695061       30.563794       35.063750
  O           37.160092       31.766983       34.610117
  C           36.073231       32.678394       34.678399
  C           35.184750       32.049014       35.701621
  F           35.568122       32.405771       36.955555
  O           35.426966       30.666805       35.571513
  H           35.604375       32.720983       33.692822
  H           36.428755       33.662769       34.983534
  H           34.123202       32.291982       35.571302
  O           25.848409       32.143264       30.945925
  C           26.719946       31.746390       30.194183
  O           27.526235       32.560883       29.448395
  C           28.528819       31.733153       28.877178
  C           27.889592       30.382890       28.903217
  F           27.108036       30.200067       27.806701
  O           27.032447       30.423933       30.021125
  H           29.414252       31.784481       29.514653
  H           28.757744       32.066796       27.864866
  H           28.608558       29.557306       28.969539
  O           16.390396       31.471747       10.283294
  C           15.928136       32.179592        9.407239
  O           15.063668       31.746524        8.440364
  C           14.606533       32.901611        7.752320
  C           15.686435       33.895584        8.032193
  F           16.704226       33.762809        7.141647
  O           16.188232       33.519782        9.294363
  H           13.648816       33.197515        8.186161
  H           14.502632       32.687049        6.688522
  H           15.339374       34.935956        8.023579
  O           30.428083       13.030720       34.983126
  C           30.184498       12.722484       33.830800
  O           30.999364       11.951511       33.048949
  C           30.271726       11.655550       31.865923
  C           29.264101       12.757836       31.819477
  F           29.787550       13.862613       31.226124
  O           29.038177       13.081517       33.172358
  H           29.807197       10.674866       31.990310
  H           30.939143       11.663960       31.003958
  H           28.335574       12.483285       31.304347
  O           31.446266       10.522527       19.907258
  C           30.700369       10.249247       20.829839
  O           30.881681       10.666973       22.119153
  C           29.704794       10.316883       22.832576
  C           29.138212        9.211068       22.002721
  F           29.701207        8.020924       22.339161
  O           29.555147        9.510674       20.690280
  H           29.051410       11.191767       22.858407
  H           29.961119        9.992182       23.841222
  H           28.047452        9.121862       22.074722
  O           28.701841       20.772432        8.602396
  C           28.640199       19.579539        8.837780
  O           29.403267       18.629586        8.217281
  C           29.182431       17.409875        8.910200
  C           27.857745       17.641056        9.561554
  F           26.843783       17.344010        8.707011
  O           27.816966       19.031792        9.785810
  H           29.985996       17.284102        9.639216
  H           29.161465       16.577829        8.206097
  H           27.719051       17.073180       10.489553
  O           25.375807       15.666670       37.592009
  C           26.541846       16.016747       37.592023
  O           27.580489       15.242623       38.029803
  C           28.775875       15.922012       37.674722
  C           28.316185       17.336607       37.532932
  F           28.312841       17.963844       38.738404
  O           26.973601       17.227516       37.118603
  H           29.134029       15.506366       36.730283
  H           29.521879       15.802664       38.460682
  H           28.915189       17.924900       36.827237
  O           18.797692       24.346954        9.145482
  C           17.688054       23.955689        8.832730
  O           16.525997       24.387315        9.409811
  C           15.461509       23.855290        8.634947
  C           16.100458       22.681283        7.967150
  F           16.063140       21.589640        8.775557
  O           17.453697       23.050658        7.831482
  H           15.148662       24.618991        7.919484
  H           14.634114       23.566860        9.283581
  H           15.648024       22.424768        7.001539
  O           30.209347       18.991081       26.381273
  C           29.514572       18.143261       26.911074
  O           28.809577       18.334473       28.066981
  C           27.979394       17.194497       28.233864
  C           28.683618       16.157437       27.420799
  F           29.661066       15.557491       28.149675
  O           29.319203       16.888538       26.397264
  H           26.991378       17.433486       27.834227
  H           27.918566       16.926924       29.288949
  H           28.015782       15.386290       27.018026
  O           33.369176       10.237472       11.953532
  C           33.871046       10.920592       11.079647
  O           33.755988       12.280847       11.001117
  C           34.642052       12.708512        9.977109
  C           34.807082       11.473203        9.152926
  F           33.802709       11.364230        8.244102
  O           34.650713       10.416645       10.072345
  H           35.577301       13.020811       10.446978
  H           34.195860       13.528782        9.414463
  H           35.768918       11.419751        8.628602
  O            8.158063       22.558535       35.744497
  C            9.048039       21.817900       36.120796
  O            9.212402       21.402729       37.413204
  C           10.219916       20.402102       37.397088
  C           10.961014       20.707000       36.136013
  F           11.905210       21.660111       36.352053
  O            9.988140       21.272039       35.287280
  H            9.728622       19.427173       37.363266
  H           10.849545       20.490535       38.282665
  H           11.438233       19.829351       35.683361
  O           28.863427       21.596914       24.637739
  C           27.879225       22.192418       24.239092
  O           27.092232       21.775761       23.201431
  C           25.950613       22.620234       23.188315
  C           26.437940       23.837143       23.905355
  F           27.074523       24.677416       23.047857
  O           27.407843       23.348243       24.803333
  H           25.148472       22.113958       23.729844
  H           25.653664       22.832346       22.161023
  H           25.644309       24.390215       24.422230
  O            4.481430        6.019782       20.847703
  C            4.534557        4.928700       20.310194
  O            3.492481        4.343687       19.645712
  C            4.014222        3.192895       18.997588
  C            5.238444        2.894357       19.800493
  F            4.927278        2.144630       20.890302
  O            5.663062        4.153185       20.270762
  H            4.251194        3.463160       17.966181
  H            3.285968        2.382297       19.030406
  H            6.024598        2.384576       19.230418
  O           33.388351        3.703944       34.645828
  C           33.675587        4.885392       34.583568
  O           32.838980        5.859770       34.114124
  C           33.460124        7.104821       34.398073
  C           34.899673        6.727308       34.531044
  F           35.503364        6.698970       33.313935
  O           34.870274        5.402305       35.010212
  H           33.043814        7.485632       35.333310
  H           33.286312        7.804923       33.580670
  H           35.468328        7.389551       35.195096
  O           37.351702       27.336980       34.716557
  C           36.319381       27.166905       35.339122
  O           35.978720       27.853073       36.471740
  C           34.631250       27.514887       36.765945
  C           34.464165       26.205610       36.065678
  F           34.896300       25.183001       36.849343
  O           35.341136       26.283859       34.965269
  H           33.987895       28.292705       36.348699
  H           34.492983       27.431852       37.844132
  H           33.432730       26.002906       35.752703
  O           19.231222       13.585468       16.911745
  C           19.647868       12.450036       17.051031
  O           20.961441       12.089460       16.931821
  C           21.057064       10.740711       17.365792
  C           19.659734       10.242154       17.188563
  F           19.457914        9.821557       15.912253
  O           18.854989       11.382912       17.381317
  H           21.366150       10.742996       18.413389
  H           21.774545       10.199015       16.749118
  H           19.391479        9.431652       17.877058
  O            2.957472       14.613377       24.099351
  C            3.544893       13.790202       24.777229
  O            3.817572       13.939294       26.108814
  C            4.320050       12.692345       26.566235
  C            4.818895       12.061085       25.307203
  F            6.083681       12.474167       25.031015
  O            3.982948       12.583235       24.299904
  H            3.491502       12.134997       27.008809
  H            5.114513       12.853561       27.295164
  H            4.798927       10.964682       25.327262
  O            7.999836       15.137092       37.640466
  C            8.792810       14.512851       36.959500
  O            8.522582       14.025887       35.710683
  C            9.751659       13.550582       35.181482
  C           10.561104       13.301390       36.412418
  F           10.297692       12.068365       36.919234
  O           10.079961       14.243737       37.343322
  H           10.179037       14.338472       34.557320
  H            9.583531       12.642629       34.601952
  H           11.642176       13.397907       36.254719
  O            7.683018        2.621255       25.999923
  C            6.471660        2.503732       25.968301
  O            5.705261        2.117596       27.032835
  C            4.350196        2.303478       26.650936
  C            4.425715        2.273678       25.158988
  F            4.383665        0.994898       24.701218
  O            5.708408        2.777587       24.864240
  H            4.021545        3.273835       27.029611
  H            3.734102        1.499207       27.053524
  H            3.635656        2.853989       24.667109
  O            8.639266       17.416711       33.515136
  C            7.846864       17.938743       32.752391
  O            7.827936       19.272687       32.452500
  C            6.905774       19.439699       31.385577
  C            6.036981       18.230933       31.514349
  F            5.041897       18.448067       32.413938
  O            6.885062       17.248350       32.063337
  H            7.468500       19.447363       30.449478
  H            6.349635       20.368606       31.513411
  H            5.594088       17.904729       30.565488
  O           17.117894       32.020580       23.555351
  C           17.865110       31.060738       23.504625
  O           19.166769       31.116554       23.089573
  C           19.741586       29.849136       23.372128
  C           18.545047       28.956687       23.437905
  F           18.197376       28.526912       22.196527
  O           17.507945       29.796146       23.891587
  H           20.259755       29.918353       24.331143
  H           20.430699       29.564889       22.576623
  H           18.681325       28.086032       24.090813
  O           20.928591       12.674539        6.902299
  C           21.135539       13.838738        7.192148
  O           22.214832       14.275954        7.908855
  C           22.196481       15.694790        7.852582
  C           20.763308       15.989806        7.550127
  F           20.027847       16.021438        8.692361
  O           20.326772       14.874987        6.806680
  H           22.863169       16.010546        7.047085
  H           22.515433       16.111488        8.808162
  H           20.613534       16.929190        7.004209
  O           29.288922        8.690355        0.999969
  C           28.341104        8.985172        1.704898
  O           28.042578        8.375756        2.891993
  C           27.004483        9.135824        3.493038
  C           26.395072        9.836734        2.322635
  F           25.470917        9.045838        1.716813
  O           27.462583        9.995859        1.416434
  H           27.460322        9.831563        4.200963
  H           26.299321        8.474093        3.996386
  H           25.929584       10.796318        2.578407
  O           26.350733       12.879778       12.129337
  C           25.300432       13.341369       12.536770
  O           24.068307       12.814460       12.264860
  C           23.136567       13.508817       13.081149
  C           23.851495       14.787396       13.375453
  F           23.654989       15.688480       12.377439
  O           25.216356       14.436927       13.354806
  H           22.964994       12.913761       13.980855
  H           22.206115       13.667253       12.535569
  H           23.561134       15.243928       14.329480
  O            6.957719       24.523618       26.326703
  C            7.084514       25.248843       25.357079
  O            6.064605       25.955870       24.782974
  C            6.655177       26.823050       23.825987
  C            7.954304       26.146178       23.531686
  F            7.794087       25.193656       22.575845
  O            8.280308       25.480196       24.730139
  H            6.794030       27.800016       24.294237
  H            6.016261       26.900087       22.946015
  H            8.747903       26.835200       23.218082
  O           34.038412       35.940191       35.035856
  C           34.817955       35.665438       34.141974
  O           36.001889       36.313720       33.923500
  C           36.699938       35.570045       32.935434
  C           35.599740       34.826881       32.250035
  F           35.034219       35.592531       31.280207
  O           34.626428       34.641616       33.252253
  H           37.397050       34.900913       33.444645
  H           37.229117       36.245459       32.262912
  H           35.919939       33.874545       31.810230
  O           32.863434       24.419375       37.200983
  C           32.700028       23.257121       37.524501
  O           32.210980       22.854307       38.736224
  C           31.981087       21.456209       38.640986
  C           32.887528       21.052888       37.523759
  F           34.144136       20.819052       37.985126
  O           32.954242       22.193793       36.699147
  H           30.927912       21.301965       38.395976
  H           32.237357       20.969714       39.582341
  H           32.540581       20.170203       36.972947
  O           23.340980       22.905918       11.544100
  C           22.268503       22.456784       11.183166
  O           21.999108       21.124178       11.037262
  C           20.602342       21.011351       10.807229
  C           20.247786       22.366559       10.287420
  F           20.466631       22.439898        8.948268
  O           21.172734       23.230939       10.906627
  H           20.118197       20.794352       11.761962
  H           20.404976       20.221683       10.081989
  H           19.211651       22.659962       10.495361
  O           30.418571        8.359324       11.626390
  C           29.873974        8.026266       10.589719
  O           30.533904        7.755833        9.423075
  C           29.575993        7.211282        8.527267
  C           28.285792        7.723752        9.079764
  F           28.023187        8.971119        8.608900
  O           28.522104        7.844308       10.463861
  H           29.644929        6.122414        8.578405
  H           29.766356        7.566534        7.514322
  H           27.427642        7.074861        8.866643
  O           14.950975       11.986204       26.669428
  C           16.086790       11.582691       26.840609
  O           17.203876       12.177827       26.323277
  C           18.322569       11.534374       26.915808
  C           17.755465       10.217393       27.335872
  F           17.785605        9.330933       26.306367
  O           16.400024       10.491590       27.607344
  H           18.647472       12.135942       27.767602
  H           19.124432       11.429111       26.184757
  H           18.264317        9.775467       28.201130
  O            7.587362       14.503104       39.705480
  C            6.950334       13.581900       39.228220
  O            7.120274       12.268190       39.567319
  C            6.062660       11.546437       38.953215
  C            5.660162       12.449461       37.832928
  F            6.442516       12.239573       36.741841
  O            5.949242       13.744597       38.307435
  H            5.266178       11.420190       39.689881
  H            6.424075       10.580172       38.600779
  H            4.607852       12.346362       37.541530
  O           26.114707        6.802537       36.457561
  C           27.331344        6.792874       36.501162
  O           28.122528        7.873352       36.224948
  C           29.447868        7.513796       36.586603
  C           29.404151        6.021011       36.539869
  F           29.623192        5.573260       35.275694
  O           28.071694        5.700338       36.868241
  H           29.638421        7.891146       37.593726
  H           30.157422        7.932836       35.872854
  H           30.119407        5.538810       37.217209
  O           38.893264        2.263466        4.947720
  C           38.073890        2.320441        4.049066
  O           37.990625        1.421736        3.021887
  C           36.794645        1.716747        2.315346
  C           36.547156        3.145200        2.676967
  F           37.241924        3.975943        1.856135
  O           37.099283        3.279526        3.966623
  H           36.009798        1.053774        2.686134
  H           36.948272        1.578054        1.244989
  H           35.487477        3.427124        2.654642
  O           18.787899        1.532778       35.916654
  C           17.699825        2.027321       35.684874
  O           17.418041        3.360667       35.796610
  C           16.123205        3.553289       35.246250
  C           15.518990        2.190824       35.351671
  F           14.972671        2.001339       36.581399
  O           16.616482        1.313093       35.245845
  H           16.240366        3.875186       34.209112
  H           15.577033        4.297756       35.825875
  H           14.757771        1.987234       34.588783
  O           26.893867       21.482460       11.648196
  C           26.742489       21.983775       12.747272
  O           27.764769       22.308286       13.595410
  C           27.191620       23.047456       14.663926
  C           25.760799       22.618788       14.625260
  F           25.585554       21.466049       15.323172
  O           25.521721       22.322385       13.268394
  H           27.311536       24.110418       14.443172
  H           27.679764       22.787184       15.603327
  H           25.064687       23.375425       15.007136
  O           39.700762       22.303366       20.858240
  C           39.312534       23.348720       20.369657
  O           39.621101       23.772349       19.106714
  C           38.818179       24.915233       18.850331
  C           38.489534       25.397089       20.225943
  F           39.479741       26.195027       20.704883
  O           38.482053       24.227981       21.012854
  H           37.930972       24.589999       18.302530
  H           39.383807       25.648790       18.275475
  H           37.536699       25.936816       20.286777
  O           30.866635       35.124734       29.375027
  C           30.813170       35.237306       30.586088
  O           29.739320       34.870606       31.349028
  C           30.148459       34.966944       32.705466
  C           31.291560       35.926410       32.633056
  F           30.845248       37.209326       32.672210
  O           31.841862       35.717780       31.352532
  H           30.461461       33.974162       33.036245
  H           29.328077       35.341060       33.318254
  H           32.035881       35.784121       33.425924
  O           26.273766       37.471793       23.795336
  C           25.417681       36.736440       23.338638
  O           24.262611       37.169209       22.748533
  C           23.644074       36.027868       22.172900
  C           24.235770       34.904931       22.961195
  F           23.540264       34.706781       24.111676
  O           25.515313       35.370136       23.325138
  H           23.924672       35.986248       21.118134
  H           22.561639       36.091760       22.285827
  H           24.286727       33.958900       22.408629
  O           30.635751        6.246886       15.188803
  C           30.345260        5.533603       16.131693
  O           29.395210        5.838464       17.066661
  C           29.216273        4.676340       17.862932
  C           30.501650        3.942040       17.660179
  F           31.452324        4.390746       18.521273
  O           30.911759        4.307911       16.362470
  H           28.358460        4.125645       17.470641
  H           29.055991        4.956981       18.904110
  H           30.408471        2.854568       17.767994
  O           13.731404       10.483217       17.233912
  C           14.079275        9.401752       17.671656
  O           15.228233        8.755218       17.308901
  C           15.367469        7.645332       18.183754
  C           13.965830        7.421007       18.650214
  F           13.284047        6.644897       17.767363
  O           13.377744        8.701301       18.617024
  H           16.033293        7.937773       18.998712
  H           15.768582        6.789030       17.641208
  H           13.901390        6.967342       19.646676
  O           33.649594        4.720251       22.638364
  C           34.247027        5.571290       22.005114
  O           33.901042        5.983489       20.748099
  C           34.706409        7.114942       20.451792
  C           35.868400        6.937636       21.374203
  F           36.802649        6.121974       20.818799
  O           35.331466        6.256854       22.485211
  H           34.127915        8.012281       20.682285
  H           35.000982        7.100251       19.402264
  H           36.346873        7.880748       21.664895
  O           33.638863       14.456929       13.944600
  C           33.267747       13.367367       14.341247
  O           32.007642       12.868075       14.160849
  C           32.040900       11.511233       14.578550
  C           33.217488       11.483028       15.499064
  F           32.856266       11.864343       16.752347
  O           34.078946       12.478014       14.995087
  H           32.191941       10.888140       13.694276
  H           31.110060       11.252036       15.083381
  H           33.710290       10.504685       15.552817
  O            9.527862        6.476530       36.158076
  C            9.750304        7.665742       36.022084
  O            8.831115        8.578021       35.583290
  C            9.410972        9.862013       35.761419
  C           10.873469        9.557370       35.789609
  F           11.376783        9.500409       34.528645
  O           10.948716        8.256006       36.325230
  H            9.053822       10.266234       36.711181
  H            9.136817       10.514844       34.932473
  H           11.460825       10.274977       36.375231
  O            1.765896        4.230083        1.980293
  C            2.822163        3.630534        2.064205
  O            3.492907        3.095229        0.999662
  C            4.758948        2.671940        1.483983
  C            4.506995        2.500834        2.946768
  F            3.992088        1.270043        3.204887
  O            3.499416        3.441575        3.239841
  H            5.482438        3.463930        1.278279
  H            5.052725        1.740509        0.999595
  H            5.399025        2.650727        3.567022
  O           14.888988       25.125437       33.814047
  C           14.624109       26.147728       33.208273
  O           13.436591       26.382913       32.572516
  C           13.448156       27.745855       32.173951
  C           14.908207       28.060786       32.134357
  F           15.444820       27.702201       30.938505
  O           15.473773       27.217918       33.112012
  H           12.919962       28.325624       32.934135
  H           12.971352       27.855028       31.199661
  H           15.135483       29.116826       32.324162
  O           11.296369       16.074287       24.116729
  C           10.725105       16.220324       25.181872
  O            9.872153       15.304420       25.732591
  C            9.586202       15.751150       27.049886
  C            9.878772       17.214086       26.967917
  F            8.800015       17.894255       26.498605
  O           10.889134       17.313805       25.990510
  H           10.258322       15.232314       27.736955
  H            8.543959       15.547400       27.296293
  H           10.189291       17.654537       27.923156
  O           13.752641       26.360677       28.986939
  C           12.997609       25.682776       28.314200
  O           11.858074       26.152624       27.722252
  C           11.381887       25.119352       26.872432
  C           12.004285       23.897461       27.465814
  F           11.243274       23.416646       28.483791
  O           13.209599       24.359270       28.031546
  H           11.743421       25.318792       25.861237
  H           10.292480       25.086518       26.897248
  H           12.175337       23.094050       26.739059
  O            8.430616       29.823437        6.729384
  C            9.349710       30.231874        7.415420
  O           10.225974       31.208416        7.030418
  C           11.003066       31.535307        8.173165
  C           10.875865       30.307508        9.015085
  F           11.796529       29.377081        8.650006
  O            9.608043       29.787907        8.685324
  H           10.555454       32.411191        8.648001
  H           12.033943       31.735170        7.880170
  H           10.971541       30.500051       10.090573
  O           29.157507       26.601151       25.362920
  C           30.357147       26.727445       25.198263
  O           30.957383       27.865178       24.734605
  C           32.357428       27.679254       24.882610
  C           32.485529       26.191129       24.922296
  F           32.546460       25.680411       23.664498
  O           31.272933       25.751379       25.490037
  H           32.663883       28.146421       25.821141
  H           32.885168       28.120916       24.037077
  H           33.354566       25.839693       25.491653
  O           24.582585       14.394303       39.201488
  C           23.517970       14.360192       38.611886
  O           22.543443       13.426412       38.831097
  C           21.398447       13.851344       38.106517
  C           21.987070       14.742191       37.061330
  F           22.401305       14.016814       35.989492
  O           23.139671       15.279124       37.669042
  H           20.745162       14.394166       38.793220
  H           20.884836       12.989863       37.679253
  H           21.303150       15.527383       36.716909
  O           28.806313       12.624678       21.207276
  C           27.945686       13.258481       20.624340
  O           26.602065       13.049097       20.767663
  C           25.947298       14.112137       20.091034
  C           26.988933       14.572608       19.123842
  F           26.955703       13.824732       17.989745
  O           28.211006       14.294443       19.768251
  H           25.697626       14.879467       20.827152
  H           25.050233       13.743006       19.593523
  H           26.900908       15.632079       18.854263
  O           35.424360       28.939871       20.668973
  C           34.632661       29.662191       20.091334
  O           34.043339       30.763179       20.648311
  C           33.361637       31.437124       19.600608
  C           33.156358       30.351364       18.594881
  F           32.031766       29.642282       18.876119
  O           34.251465       29.485490       18.787506
  H           34.013694       32.229740       19.227002
  H           32.421288       31.847570       19.969086
  H           33.099163       30.714364       17.561508
  O           15.977213       29.260452        8.704844
  C           16.632935       29.748184        7.802433
  O           16.146340       30.019427        6.553693
  C           17.149434       30.761198        5.875329
  C           18.389808       30.387371        6.619793
  F           18.911257       29.230239        6.134266
  O           17.944141       30.123481        7.930458
  H           16.911120       31.822527        5.974260
  H           17.187813       30.466680        4.826383
  H           19.165000       31.162993        6.600075
  O           36.171338       12.151187        4.404977
  C           36.533604       13.191675        3.886953
  O           35.791840       13.905318        2.986842
  C           36.466915       15.138382        2.785780
  C           37.868382       14.811203        3.187456
  F           38.550705       14.263337        2.147803
  O           37.725736       13.806386        4.165257
  H           36.011862       15.884508        3.440931
  H           36.392156       15.440045        1.740834
  H           38.429789       15.673726        3.566634
  O           15.417732        7.352117        7.040761
  C           14.943598        6.895642        8.064982
  O           14.026038        7.541881        8.846109
  C           13.579686        6.604226        9.814702
  C           14.702749        5.619579        9.855919
  F           15.677959        6.038309       10.704583
  O           15.243356        5.651986        8.554845
  H           12.651071        6.158225        9.451718
  H           13.424911        7.100718       10.772847
  H           14.390508        4.608349       10.143703
  O           19.008569       14.257459       28.224562
  C           19.831521       14.871873       27.570769
  O           19.771689       15.039451       26.215026
  C           20.784901       15.973653       25.872580
  C           21.732177       15.862288       27.022696
  F           22.604723       14.838672       26.829118
  O           20.914871       15.509399       28.115207
  H           20.326043       16.962755       25.808340
  H           21.245511       15.695567       24.924420
  H           22.298776       16.781219       27.216164
  O           13.848597       12.587697       17.876210
  C           14.400159       13.115491       18.824584
  O           13.755269       13.548773       19.949788
  C           14.761013       13.906333       20.886392
  C           15.943041       14.167530       20.010557
  F           15.920893       15.442624       19.541257
  O           15.753018       13.315252       18.904386
  H           14.919939       13.056478       21.553841
  H           14.453771       14.789599       21.446700
  H           16.905157       13.986930       20.505143
  O           24.031775       26.532473       33.900072
  C           23.663889       25.380749       33.757274
  O           22.357737       24.997928       33.626454
  C           22.367229       23.621401       33.277622
  C           23.701463       23.168947       33.775222
  F           23.636629       22.839123       35.091889
  O           24.518083       24.313069       33.674136
  H           22.283355       23.546643       32.191170
  H           21.541999       23.105126       33.768496
  H           24.114889       22.320993       33.215801
  O           16.082926       34.366701       28.859603
  C           15.239505       35.158455       28.480173
  O           14.213680       34.846412       27.631638
  C           13.348425       35.972087       27.603520
  C           14.248409       37.084914       28.032640
  F           14.936826       37.582331       26.971858
  O           15.186957       36.466700       28.882958
  H           12.539568       35.795539       28.315968
  H           12.956043       36.117586       26.596859
  H           13.722875       37.907223       28.533162
  O           17.582546       29.682290       28.422545
  C           18.651891       29.140042       28.211194
  O           19.303506       28.341219       29.109515
  C           20.391228       27.747408       28.416082
  C           20.608462       28.693711       27.280379
  F           21.408055       29.724702       27.660257
  O           19.331207       29.231856       27.025193
  H           20.076867       26.758075       28.076381
  H           21.259281       27.676525       29.071793
  H           21.037825       28.219885       26.389292
  O           23.763407       29.728476       16.195571
  C           24.912407       29.529515       16.545449
  O           25.917005       29.132081       15.707280
  C           27.125415       29.213385       16.448721
  C           26.646007       29.134596       17.861682
  F           26.492687       27.840095       18.245560
  O           25.360785       29.711743       17.826952
  H           27.596715       30.172808       16.224254
  H           27.783110       28.385020       16.184621
  H           27.303048       29.642813       18.577861
  O           25.337235       11.546002       32.543793
  C           25.623840       12.614491       32.035474
  O           25.434821       13.829536       32.633502
  C           26.079003       14.794066       31.814167
  C           26.131433       14.110289       30.486688
  F           24.971954       14.298090       29.803359
  O           26.208793       12.739154       30.803083
  H           27.074245       14.977295       32.225166
  H           25.493448       15.713245       31.787037
  H           26.970868       14.432862       29.858839
  O            6.032237       30.163760       23.227023
  C            5.494573       30.343639       24.304409
  O            5.164219       31.571589       24.807105
  C            4.381558       31.341398       25.969454
  C            4.783183       29.957123       26.363130
  F            5.910323       29.981292       27.121794
  O            5.116355       29.330693       25.145475
  H            3.328415       31.402262       25.686283
  H            4.622367       32.079198       26.735066
  H            4.001734       29.409670       26.903993
  O           35.145327       15.751252       28.590583
  C           35.316275       15.817519       29.794154
  O           35.468804       16.985086       30.489297
  C           35.434571       16.648262       31.868419
  C           35.815575       15.203525       31.859950
  F           37.167186       15.063092       31.854923
  O           35.344465       14.725514       30.620732
  H           34.416191       16.805818       32.230466
  H           36.144308       17.263548       32.421770
  H           35.401742       14.634772       32.701473
  O           22.878848        5.382966       20.691276
  C           23.277875        4.235370       20.768746
  O           22.543910        3.194575       21.266483
  C           23.276800        2.009166       20.993947
  C           24.672078        2.519036       20.833531
  F           25.286276        2.626148       22.040960
  O           24.510577        3.826541       20.333082
  H           22.886323        1.574009       20.071360
  H           23.181072        1.310404       21.825251
  H           25.292332        1.901973       20.172155
  O           28.574303       35.412205       23.098997
  C           28.828907       36.600902       23.165144
  O           28.377678       37.537822       22.277296
  C           28.717043       38.807938       22.814173
  C           29.846959       38.480342       23.735298
  F           31.024690       38.447224       23.058205
  O           29.577930       37.164998       24.163774
  H           27.845900       39.193710       23.348299
  H           29.014597       39.485403       22.013547
  H           29.941160       39.174016       24.579598
  O           18.021704       18.868830       12.360640
  C           17.492789       19.364101       13.338983
  O           17.385022       18.746622       14.554222
  C           16.900638       19.720574       15.467124
  C           16.235873       20.709332       14.565489
  F           14.961158       20.327342       14.290200
  O           16.962668       20.627031       13.360874
  H           17.757546       20.149168       15.991542
  H           16.203900       19.261941       16.169059
  H           16.222887       21.730249       14.966065
  O            2.025597       10.872137        5.418512
  C            2.803779       11.598914        6.008790
  O            3.535202       11.222233        7.100958
  C            4.457195       12.271209        7.358211
  C            3.805292       13.445206        6.703036
  F            2.905824       14.024731        7.540716
  O            3.076384       12.887817        5.633405
  H            5.407750       12.009659        6.888065
  H            4.578681       12.407630        8.432980
  H            4.515238       14.207743        6.360381
  O           25.302607       17.145515       33.445556
  C           24.149495       17.290695       33.808127
  O           23.780118       17.789511       35.026504
  C           22.375150       17.990327       34.978133
  C           21.950876       17.059722       33.888883
  F           21.759064       15.805684       34.375911
  O           23.062912       17.003393       33.024996
  H           22.191006       19.036524       34.724042
  H           21.927663       17.738413       35.939795
  H           21.042351       17.381014       33.365191
  O           10.614571       18.275537       33.972876
  C           10.784671       18.810611       32.892615
  O           10.534686       18.214449       31.687709
  C           10.660049       19.224236       30.697146
  C           11.526005       20.237101       31.372961
  F           12.839507       19.922196       31.224134
  O           11.219496       20.100830       32.741750
  H            9.662125       19.611499       30.479947
  H           11.122134       18.812799       29.799540
  H           11.363189       21.261889       31.017715
  F           17.695066       17.445949       35.331835
  P           18.497854       16.737229       34.102954
  F           19.013201       18.198467       33.596890
  F           19.819538       16.597942       35.046697
  F           19.300642       16.028510       32.874073
  F           17.982507       15.275991       34.609019
  F           17.176170       16.876516       33.159211
  F            7.007318       31.422177       11.111492
  P            7.877908       30.478265       12.115485
  F            8.005766       31.716042       13.168321
  F            6.505820       29.994695       12.850628
  F            8.748498       29.534353       13.119479
  F            7.750050       29.240489       11.062650
  F            9.249996       30.961835       11.380343
  F           36.429915       10.010684       20.585942
  P           36.545500        9.670802       18.995967
  F           36.943731        8.131284       19.354013
  F           34.969127        9.256961       18.969835
  F           36.661086        9.330920       17.405992
  F           36.147270       11.210320       18.637921
  F           38.121874       10.084643       19.022099
  F            4.608818       19.550115       12.864047
  P            4.784630       18.391241       11.731351
  F            5.988733       17.722173       12.602777
  F            3.700137       17.460511       12.515261
  F            4.960443       17.232366       10.598655
  F            3.580527       19.060309       10.859924
  F            5.869124       19.321971       10.947441
  F           13.840338       33.259693       26.151831
  P           15.167437       32.499754       26.715924
  F           14.681398       32.786128       28.245191
  F           14.355357       31.086466       26.722481
  F           16.494536       31.739816       27.280017
  F           15.653476       32.213381       25.186658
  F           15.979517       33.913043       26.709368
  F           15.260782       18.158861       14.508930
  P           13.952596       17.903358       13.570704
  F           13.400951       16.803211       14.639472
  F           13.151824       19.078643       14.367177
  F           12.644410       17.647855       12.632479
  F           14.504241       19.003505       12.501936
  F           14.753369       16.728073       12.774232
  F           33.738796       21.600751       28.596094
  P           33.410491       21.578826       30.192538
  F           32.016577       20.788011       29.895022
  F           34.189028       20.153683       30.333070
  F           33.082185       21.556900       31.788983
  F           34.804404       22.369641       30.490055
  F           32.631953       23.003968       30.052007
  F           13.489297       29.409858       15.787979
  P           14.526289       29.762159       16.995220
  F           13.973148       31.295183       17.022983
  F           13.396873       29.334818       18.090071
  F           15.563281       30.114461       18.202461
  F           15.079431       28.229135       16.967457
  F           15.655706       30.189500       15.900369
  F            5.335628       18.368516        3.634859
  P            5.869084       17.016190        2.897609
  F            4.663460       17.135124        1.807092
  F            6.827623       17.918392        1.936289
  F            6.402540       15.663864        2.160358
  F            7.074707       16.897256        3.988125
  F            4.910545       16.113988        3.858928
  F           26.525608        8.213363       28.453810
  P           26.228946        9.388113       29.544155
  F           27.741977        9.227529       30.128836
  F           26.757747       10.506627       28.482931
  F           25.932285       10.562864       30.634500
  F           24.715916        9.548697       28.959474
  F           25.700145        8.269599       30.605378
  F           14.209477       38.848938       24.851362
  P           13.789248       37.765343       23.708502
  F           14.777024       36.662728       24.390733
  F           12.562624       37.248658       24.649422
  F           13.369019       36.681748       22.565642
  F           12.801472       38.867957       23.026270
  F           15.015872       38.282027       22.767582
  F           35.901162        4.800335       11.203512
  P           37.342062        5.425455       10.767700
  F           38.102836        4.191677       11.513297
  F           37.298130        4.562950        9.385292
  F           38.782962        6.050575       10.331888
  F           36.581288        6.659234       10.022104
  F           37.385993        6.287961       12.150109
  F           27.265583        3.113775       28.861143
  P           27.052391        2.555388       30.377604
  F           26.104135        1.360040       29.804145
  F           28.360924        1.598179       30.209103
  F           26.839198        1.997000       31.894064
  F           28.000647        3.750735       30.951063
  F           25.743857        3.512596       30.546104
  F           25.255721       18.864239        5.556104
  P           26.503614       17.885728        5.933168
  F           26.081629       16.880598        4.721333
  F           27.463609       18.715866        4.910338
  F           27.751508       16.907217        6.310232
  F           26.925599       18.890858        7.145002
  F           25.543619       17.055590        6.955997
  F            6.565294        8.821455       18.143156
  P            5.197413        8.041616       17.721664
  F            4.597704        9.426469       17.105684
  F            5.850216        7.679767       16.272591
  F            3.829533        7.261778       17.300173
  F            5.797123        6.656764       18.337645
  F            4.544611        8.403466       19.170738
  F           30.529128       13.614233       27.592796
  P           29.754699       12.217630       27.919385
  F           31.078044       11.664997       28.694145
  F           29.201602       12.850874       29.315804
  F           28.980270       10.821027       28.245974
  F           28.431354       12.770263       27.144625
  F           30.307796       11.584386       26.522966
  F           12.634133       36.180918       39.700552
  P           12.633665       36.907416       38.241408
  F           13.962026       37.753214       38.662099
  F           13.578311       35.718414       37.649109
  F           12.633197       37.633913       36.782264
  F           11.305304       36.061617       37.820717
  F           11.689019       38.096417       38.833707
  F            2.381421       18.947680       34.228561
  P            2.526439       19.203307       35.831847
  F            3.658702       20.340995       35.548041
  F            1.362888       20.342262       35.755496
  F            2.671456       19.458933       37.435132
  F            1.394176       18.065618       36.115652
  F            3.689989       18.064351       35.908197
  F           35.328129        1.641785       30.905367
  P           34.891876        3.158742       30.498646
  F           33.349927        2.825214       30.908586
  F           35.190164        3.653210       32.022925
  F           34.455623        4.675700       30.091924
  F           36.433825        3.492271       30.088705
  F           34.593588        2.664275       28.974367
  F           17.944777       37.424874       36.915922
  P           19.068580       38.548161       37.279509
  F           18.342648       38.809684       38.715312
  F           19.999704       37.396323       37.960079
  F           20.192382       39.671448       37.643096
  F           19.794511       38.286639       35.843706
  F           18.137455       39.700000       36.598939
  F           10.279037       15.779136       20.373278
  P           10.321887       17.295692       20.969199
  F           11.675968       16.930951       21.800059
  F           11.228269       17.768896       19.699770
  F           10.364736       18.812248       21.565120
  F            8.967806       17.660432       20.138339
  F            9.415505       16.822487       22.238628
  F           10.573877       15.470609        1.000090
  P           10.220573       15.528446        2.590288
  F            8.629677       15.549964        2.236047
  F           10.187011       13.899614        2.642074
  F            9.867269       15.586283        4.180487
  F           11.811469       15.506928        2.944530
  F           10.254135       17.157277        2.538503
  F            9.624038       33.454554       29.064652
  P            8.172811       33.568646       29.798016
  F            7.490868       32.728027       28.579321
  F            8.465717       32.176797       30.594170
  F            6.721583       33.682737       30.531379
  F            8.854753       34.409264       31.016710
  F            7.879905       34.960495       29.001861
  F           30.218102        3.903235        4.503715
  P           30.954185        4.556015        3.204114
  F           32.147188        3.451946        3.325256
  F           30.122424        3.550126        2.227762
  F           31.690267        5.208794        1.904514
  F           29.761181        5.660083        3.082973
  F           31.785945        5.561903        4.180467
  F           39.700264       14.353437       20.001828
  P           38.547769       13.656425       19.083771
  F           38.579647       12.339419       20.043656
  F           37.395537       14.317159       20.028594
  F           37.395274       12.959412       18.165714
  F           38.515890       14.973431       18.123885
  F           39.700001       12.995691       18.138947
  F           27.745882       23.561678       18.216794
  P           26.891041       24.076667       19.505566
  F           26.347665       22.559682       19.751327
  F           28.168105       23.775930       20.472813
  F           26.036201       24.591656       20.794339
  F           27.434418       25.593652       19.259805
  F           25.613978       24.377405       18.538319
  F           27.933365       20.463985       19.160589
  P           28.076497       20.571090       17.540422
  F           26.985644       19.372713       17.364830
  F           26.873811       21.670782       17.506870
  F           28.219628       20.678196       15.920255
  F           29.167350       21.769467       17.716014
  F           29.279182       19.471399       17.573973
  F            7.208885       24.261581       13.472526
  P            7.995679       24.416508       12.053423
  F            6.640952       23.986666       11.255394
  F            7.545602       25.981159       11.974703
  F            8.782473       24.571435       10.634320
  F            9.350406       24.846349       12.851452
  F            8.445756       22.851856       12.132143
  F           30.671331       15.227111        9.063751
  P           31.248899       14.244510       10.229002
  F           29.937073       13.289540       10.073940
  F           32.025061       13.361658        9.099823
  F           31.826467       13.261908       11.394253
  F           32.560725       15.199480       10.384064
  F           30.472737       15.127361       11.358181
  F           17.724463       19.611310       18.699751
  P           19.097833       20.277055       19.272063
  F           18.247870       21.551374       19.829353
  F           18.878020       19.509074       20.692903
  F           20.471203       20.942799       19.844374
  F           19.947797       19.002735       18.714772
  F           19.317646       21.045035       17.851222
  F           15.093820       21.992224        1.564600
  P           14.480982       21.340020        2.926937
  F           13.184016       22.320734        2.813011
  F           13.706897       20.213197        2.039265
  F           13.868145       20.687816        4.289273
  F           15.777949       20.359307        3.040862
  F           15.255068       22.466844        3.814608
  F           10.689135        1.794675       35.512345
  P           12.056480        2.642134       35.775175
  F           11.289639        4.013728       35.342065
  F           11.610137        2.881805       37.324445
  F           13.423825        3.489594       36.038005
  F           12.823321        1.270540       36.208286
  F           12.502823        2.402464       34.225906
  F            0.999470       26.827877       28.907752
  P            2.580182       26.511263       28.666916
  F            2.371924       26.693403       27.060568
  F            2.919115       28.099809       28.803096
  F            4.160895       26.194648       28.426080
  F            2.788441       26.329122       30.273264
  F            2.241250       24.922716       28.530736
  F           29.239221       35.314207       18.950710
  P           29.937425       34.371218       17.819259
  F           28.891186       34.935034       16.703735
  F           30.974148       35.575288       17.455496
  F           30.635630       33.428229       16.687808
  F           30.983665       33.807402       18.934784
  F           28.900703       33.167149       18.183022
  Li          37.567594       17.153085       25.495462
  Li          25.903572       12.757961       26.754479
  Li           9.002775       39.650682       16.511642
  Li           8.502545        2.187501        1.204584
  Li          36.177715       13.119545       36.635078
  Li          31.125744       13.975169       37.111020
  Li          31.681521       15.104730        3.010540
  Li           7.749040       20.230948       14.738007
  Li           4.589237       26.984765        3.991163
  Li          32.436567       23.156391       22.195715
  Li           2.477078       11.944681        8.888904
  Li          12.861855       14.532272       24.015296
  Li          38.424778       12.094924       12.264529
  Li          28.140169       23.597292       26.863032
  Li          38.492763       21.163579       19.415538
  Li           6.724054       20.161217       12.792673
  Li           9.208551       37.391575        1.904901
  Li          19.735984       18.154468       24.055752
  Li          36.745170       27.939021        3.550470
  Li          20.719004       26.909518       16.366121
  Li          23.469264       24.239356       30.472652
  Li          14.047753        4.000702       33.991302
  Li          14.847816       14.556791       24.961380
  Li          12.781144       12.009653       26.227124
  Li          33.106461       21.149270       14.651083
  Li          20.960685       27.293467       32.963981
  Li          30.804887        1.471136       29.219900
  Li          15.687154       37.570616        1.878898
  Li          19.837022        4.726954       23.840343
  Li          24.345272       27.617528        4.909588
  Li          37.220130       13.034506        8.984161
  Li          15.884391       16.295622       34.842039
  Li           4.913762       20.370773        4.442296
  Li          28.328451       34.342489       39.354989
