11
Properties=species:S:1:pos:R:3 mapped_smiles="[C:1]([S:2]([C:3]([H:9])([H:10])[H:11])(=[O:4])=[O:5])([H:6])([H:7])[H:8]" name=DMS_B pbc="F F F"
C       -1.32715264      -0.33443581      -0.49768079
S        0.03630447       0.77131932      -0.08191346
C        1.30354908      -0.33207736       0.57449784
O        0.54873649       1.35086854      -1.33950723
O       -0.41261930       1.64909486       1.01716690
H       -2.11540202       0.31193770      -0.90103323
H       -0.98709922      -1.04862478      -1.25657358
H       -1.66855319      -0.83625427       0.41515162
H        0.91059561      -0.83413969       1.46619622
H        2.14809777       0.31593256       0.83648653
H        1.59197156      -1.04609945      -0.20563701
