15
EMC
C       -2.210000     0.950000    -0.220000
C       -1.710000    -0.180000     0.650000
O       -0.370000     0.070000     1.080000
C        0.600000    -0.340000     0.220000
O        0.430000    -0.890000    -0.850000
O        1.800000    -0.030000     0.770000
C        2.920000    -0.410000    -0.030000
H       -2.130000     1.910000     0.310000
H       -3.260000     0.790000    -0.500000
H       -1.620000     1.040000    -1.130000
H       -2.330000    -0.250000     1.560000
H       -1.800000    -1.150000     0.140000
H        2.940000    -1.500000    -0.180000
H        3.830000    -0.120000     0.500000
H        2.900000     0.110000    -0.990000
