        4862
  Built with Packmol                                             
  C           10.548687       15.826209       21.061933
  C           10.841430       14.569632       21.848772
  O           11.731160       14.849084       22.931955
  C           13.053994       14.803382       22.621118
  O           13.530989       14.547258       21.533379
  O           13.754506       15.091333       23.745826
  C           15.170995       15.075629       23.566628
  H           10.147088       16.609624       21.720627
  H            9.816827       15.626139       20.267670
  H           11.451770       16.227353       20.606054
  H            9.907970       14.184089       22.293080
  H           11.227607       13.770082       21.200168
  H           15.513628       14.076929       23.256466
  H           15.637262       15.315936       24.524724
  H           15.473971       15.829808       22.837368
  C           31.916558       21.069940       31.314558
  C           30.507626       21.453380       30.925087
  O           29.981625       22.426388       31.830392
  C           29.393250       21.920144       32.946694
  O           29.274965       20.744492       33.229805
  O           28.953897       22.963267       33.693330
  C           28.305382       22.576414       34.905177
  H           32.559096       21.960681       31.365786
  H           32.344881       20.369591       30.584797
  H           31.942591       20.603170       32.297282
  H           30.512630       21.917668       29.924182
  H           29.856330       20.570418       30.852346
  H           27.410852       21.971697       34.692730
  H           27.990481       23.483229       35.426353
  H           28.994742       22.029387       35.551662
  C           19.034446       23.072857       25.903155
  C           18.492189       21.940077       26.743731
  O           17.171898       21.588352       26.324063
  C           16.171480       22.312538       26.892673
  O           16.299952       23.204206       27.707980
  O           14.995563       21.860488       26.391206
  C           13.847612       22.534360       26.907833
  H           19.008352       22.808853       24.836140
  H           20.071522       23.302731       26.182675
  H           18.437107       23.974802       26.021401
  H           19.120459       21.043321       26.607701
  H           18.528058       22.182183       27.815738
  H           13.772728       22.397609       27.997186
  H           12.960083       22.096663       26.445432
  H           13.879666       23.596135       26.654838
  C           26.575806       29.846332        1.972497
  C           26.492958       30.935626        3.016707
  O           26.271766       30.375391        4.312936
  C           24.969161       30.153190        4.633010
  O           24.004128       30.388504        3.933268
  O           24.933224       29.623081        5.880525
  C           23.615694       29.339850        6.352430
  H           27.356949       29.118398        2.234849
  H           26.807807       30.270022        0.986007
  H           25.640195       29.295255        1.900070
  H           27.451994       31.479253        3.062755
  H           25.727415       31.681796        2.759266
  H           23.015444       30.260472        6.408588
  H           23.697683       28.922008        7.358305
  H           23.128865       28.601841        5.711539
  C           18.191393       10.163198        2.135413
  C           19.486448       10.169859        2.914251
  O           19.853827       11.504626        3.269822
  C           20.569900       12.177776        2.330297
  O           20.918912       11.751855        1.247207
  O           20.832884       13.415584        2.817401
  C           21.589116       14.239436        1.929605
  H           17.394678       10.661217        2.706483
  H           17.875155        9.134577        1.915338
  H           18.291963       10.701978        1.195253
  H           19.355189        9.612378        3.857323
  H           20.289456        9.659291        2.363253
  H           22.572855       13.790934        1.724417
  H           21.747010       15.205491        2.414279
  H           21.040961       14.406001        0.999991
  C           15.477274       12.976763        7.671177
  C           14.758471       11.699936        7.301264
  O           13.906533       11.274277        8.367104
  C           14.505504       10.505660        9.315292
  O           15.668789       10.155191        9.330742
  O           13.570780       10.191880       10.246116
  C           14.062912        9.376771       11.310167
  H           14.756422       13.759738        7.947259
  H           16.084218       13.339019        6.830410
  H           16.129735       12.829419        8.529597
  H           14.110690       11.878916        6.426194
  H           15.465803       10.911730        7.005437
  H           14.427878        8.412407       10.925717
  H           13.237318        9.181399       11.998153
  H           14.852137        9.895949       11.857869
  C           29.514600       14.716352        6.265048
  C           29.271116       16.178880        5.972598
  O           30.443722       16.949363        6.245267
  C           30.576453       17.365727        7.532755
  O           29.802675       17.149500        8.444245
  O           31.729430       18.073617        7.622950
  C           31.997876       18.580397        8.930586
  H           30.379838       14.347445        5.695688
  H           28.635631       14.114551        5.997188
  H           29.735683       14.554606        7.318262
  H           29.044288       16.310250        4.900828
  H           28.397326       16.558510        6.521663
  H           31.204290       19.272143        9.251067
  H           32.939803       19.132260        8.894238
  H           32.105814       17.761521        9.644863
  C            4.122630       20.475339       36.432975
  C            2.953618       19.517991       36.459372
  O            3.035875       18.592079       35.373591
  C            2.487949       19.019915       34.205116
  O            1.944976       20.089582       34.012001
  O            2.650029       18.036022       33.286266
  C            2.113527       18.349220       32.000625
  H            5.073787       19.923940       36.445580
  H            4.094811       21.147243       37.301464
  H            4.118694       21.080262       35.528347
  H            2.981267       18.924072       37.388832
  H            1.994210       20.055210       36.464957
  H            1.027538       18.516289       32.061576
  H            2.292964       17.497309       31.340966
  H            2.613966       19.223132       31.578440
  C           24.106838       27.340235       33.053395
  C           23.562321       25.930712       33.076747
  O           24.461334       25.032254       32.422875
  C           24.300558       24.930097       31.076653
  O           23.477769       25.516583       30.401855
  O           25.222440       24.049678       30.614488
  C           25.167076       23.839530       29.203258
  H           25.108987       27.374675       33.504405
  H           23.448056       28.020962       33.609377
  H           24.204672       27.710102       32.034608
  H           23.469019       25.586187       34.120776
  H           22.552330       25.882799       32.644632
  H           24.191872       23.423039       28.909128
  H           25.942624       23.118061       28.936595
  H           25.364553       24.770896       28.668506
  C           18.055051       10.126661       33.955722
  C           17.430800       11.321310       34.639040
  O           17.153351       11.029409       36.010468
  C           15.952831       10.435665       36.244605
  O           15.117117       10.145156       35.411846
  O           15.847202       10.226142       37.580098
  C           14.622923        9.606290       37.974715
  H           18.960844        9.805772       34.490014
  H           18.326158       10.369124       32.919279
  H           17.375397        9.276806       33.944898
  H           18.139654       12.166785       34.629172
  H           16.532751       11.665407       34.105931
  H           13.762446       10.238752       37.709064
  H           14.637731        9.485665       39.060224
  H           14.528930        8.618131       37.519625
  C           11.825366       37.717972       13.351964
  C           11.423052       36.430340       12.670827
  O           12.025017       35.307771       13.319269
  C           13.274440       34.990780       12.886767
  O           13.902994       35.560743       12.017076
  O           13.699186       33.916751       13.597156
  C           15.007414       33.467651       13.242687
  H           11.569476       37.685845       14.420789
  H           11.314729       38.576080       12.894360
  H           12.899411       37.881084       13.287760
  H           10.330600       36.295743       12.747199
  H           11.656645       36.453889       11.596593
  H           15.039062       33.152230       12.188880
  H           15.250897       32.604660       13.866436
  H           15.746034       34.249187       13.432534
  C            9.527282        8.060681       22.395451
  C            8.888290        9.243285       21.704845
  O            9.616672       10.441818       21.980486
  C            9.260250       11.085964       23.123570
  O            8.396296       10.742440       23.905794
  O           10.039620       12.189638       23.237959
  C            9.770054       12.971719       24.401782
  H           10.582841        7.966394       22.102522
  H            9.006048        7.129675       22.134599
  H            9.507478        8.175814       23.477417
  H            8.918017        9.095285       20.611862
  H            7.826658        9.340585       21.974236
  H            8.734858       13.344839       24.389526
  H           10.444388       13.830994       24.397275
  H            9.958699       12.390611       25.306838
  C           35.977185       10.429457       14.814223
  C           37.235424        9.622597       15.036956
  O           38.224275        9.950601       14.058392
  C           38.141359        9.252106       12.894850
  O           37.324962        8.393462       12.625544
  O           39.138620        9.680378       12.082044
  C           39.175506        9.024323       10.814356
  H           36.203084       11.505500       14.815477
  H           35.239331       10.224719       15.601722
  H           35.525851       10.201273       13.850621
  H           37.665868        9.870754       16.022114
  H           37.023060        8.543876       15.055941
  H           39.343767        7.944006       10.939271
  H           40.009291        9.437379       10.242266
  H           38.252849        9.208259       10.260036
  C           25.978024       11.709999       37.813970
  C           26.063997       13.071895       38.463313
  O           26.441273       14.063816       37.505840
  C           27.780378       14.213007       37.323796
  O           28.658918       13.596429       37.893270
  O           27.967049       15.180203       36.391978
  C           29.339072       15.447818       36.100884
  H           25.283442       11.731505       36.961918
  H           25.627896       10.957468       38.533420
  H           26.944869       11.394043       37.427082
  H           25.072192       13.361831       38.850174
  H           26.742057       13.062380       39.328902
  H           29.866330       15.801986       36.999529
  H           29.378631       16.236956       35.346698
  H           29.825770       14.558633       35.694835
  C            1.831469       29.830443       17.456650
  C            2.903155       29.039001       16.743270
  O            2.355111       27.848226       16.173445
  C            2.306038       26.776317       17.008433
  O            2.682541       26.743605       18.163194
  O            1.763569       25.740382       16.322017
  C            1.653361       24.536113       17.081221
  H            0.999722       30.056888       16.774139
  H            2.237268       30.775868       17.841354
  H            1.413813       29.269460       18.290413
  H            3.310723       29.634590       15.908667
  H            3.750761       28.819650       17.408514
  H            2.645766       24.185920       17.402933
  H            1.210407       23.770150       16.440758
  H            0.999766       24.684375       17.943330
  C           26.968667       16.358233       20.515072
  C           27.938029       17.319918       19.867539
  O           29.147199       16.649240       19.505461
  C           30.084170       16.574330       20.487842
  O           29.986325       17.020855       21.613605
  O           31.157303       15.913226       19.987916
  C           32.230400       15.762749       20.917765
  H           26.771671       15.503473       19.852140
  H           26.015667       16.857185       20.737195
  H           27.371135       15.954479       21.442057
  H           27.500697       17.716154       18.935264
  H           28.131751       18.189878       20.511543
  H           32.613210       16.744967       21.233525
  H           33.038969       15.223729       20.418993
  H           31.909535       15.178818       21.782907
  C            9.013657        9.765567       34.986446
  C           10.062990        9.949331       33.914564
  O            9.613425        9.406869       32.670930
  C            9.857401        8.080826       32.495754
  O           10.413952        7.339780       33.281503
  O            9.371758        7.726794       31.280266
  C            9.563564        6.349033       30.958108
  H            8.059441       10.213360       34.673629
  H            9.331168       10.236818       35.926450
  H            8.822063        8.711287       35.176406
  H           10.239482       11.025779       33.748698
  H           11.028881        9.521832       34.220178
  H           10.635343        6.101252       30.928179
  H            9.142422        6.170308       29.966243
  H            9.041230        5.711147       31.674117
  C           20.879683       34.575137        2.561156
  C           22.124757       34.233760        1.775629
  O           21.967966       32.983486        1.100920
  C           22.290483       31.885218        1.834671
  O           22.694266       31.876350        2.980612
  O           22.085797       30.792762        1.057983
  C           22.390283       29.556515        1.704344
  H           19.997899       34.580157        1.904398
  H           20.974241       35.564185        3.029495
  H           20.689875       33.840556        3.341325
  H           22.293931       34.997813        0.997811
  H           23.018746       34.242000        2.415798
  H           23.452267       29.517243        1.990084
  H           22.195068       28.746707        0.997802
  H           21.751364       29.412726        2.578133
  C           25.320690       25.807939       15.618662
  C           26.488928       26.734733       15.863762
  O           27.726698       26.035553       15.715188
  C           28.169289       25.398291       16.831705
  O           27.620791       25.377458       17.915686
  O           29.340790       24.788590       16.524378
  C           29.927615       24.077174       17.614481
  H           25.401271       25.338653       14.627614
  H           24.370881       26.357157       15.670853
  H           25.294169       25.002338       16.349828
  H           26.485803       27.542530       15.112195
  H           26.413513       27.225743       16.844742
  H           30.162593       24.760447       18.444495
  H           30.860276       23.628901       17.264773
  H           29.265662       23.276590       17.951056
  C           31.406858       33.649348       28.041549
  C           31.692933       34.697152       26.990803
  O           31.709883       34.111833       25.686919
  C           32.905060       33.590385       25.301893
  O           33.932186       33.584428       25.950951
  O           32.751844       33.077764       24.055962
  C           33.939437       32.494817       23.518751
  H           30.463382       33.129350       27.821647
  H           31.331555       34.107276       29.037105
  H           32.187729       32.891834       28.068256
  H           30.888892       35.452743       26.991654
  H           32.625346       35.238602       27.206530
  H           34.737083       33.247627       23.429085
  H           33.710505       32.117073       22.519752
  H           34.269087       31.656964       24.136597
  C            3.252121       19.889776       11.193634
  C            2.471408       19.600424        9.932458
  O            2.943881       20.406883        8.851073
  C            2.379227       21.640286        8.758973
  O            1.527585       22.100436        9.493322
  O            2.932772       22.271376        7.694120
  C            2.426408       23.587979        7.472869
  H            4.328571       19.744125       11.023511
  H            2.932803       19.227160       12.009401
  H            3.118404       20.921091       11.514273
  H            2.621756       18.548296        9.636113
  H            1.390495       19.724715       10.091452
  H            1.345716       23.560518        7.267073
  H            2.931629       24.003673        6.598197
  H            2.638387       24.229845        8.330466
  C            7.200940       34.992672       20.435637
  C            8.641191       34.616926       20.696966
  O            9.418056       35.778009       20.999235
  C            9.923663       36.433238       19.920515
  O            9.780092       36.121868       18.754866
  O           10.625303       37.500792       20.375078
  C           11.221251       38.285556       19.341737
  H            6.784356       35.544090       21.290796
  H            6.589904       34.096049       20.264752
  H            7.112435       35.641458       19.566417
  H            8.698132       33.955751       21.578445
  H            9.067107       34.048954       19.857262
  H           11.941468       37.686947       18.763850
  H           11.760251       39.111780       19.810707
  H           10.454268       38.702806       18.685962
  C            7.452199        9.220204       26.103018
  C            8.866994        9.536288       26.529923
  O            9.751177        8.471890       26.171766
  C            9.843249        7.465049       27.080828
  O            9.258830        7.397323       28.143922
  O           10.710831        6.544089       26.593249
  C           10.909321        5.421926       27.453569
  H            7.412106        9.009452       25.024651
  H            6.782596       10.063154       26.321119
  H            7.072647        8.336997       26.613101
  H            9.221381       10.437791       26.001622
  H            8.920796        9.766821       27.603729
  H           11.332529        5.740325       28.418202
  H           11.621044        4.747057       26.972838
  H            9.971540        4.883131       27.604122
  C           35.162526        8.261806       25.161249
  C           33.933535        8.406844       24.293870
  O           33.576474        9.783567       24.151951
  C           32.778378       10.278970       25.134916
  O           32.350503        9.667283       26.093593
  O           32.537220       11.583662       24.855236
  C           31.701048       12.236564       25.810922
  H           35.994895        8.853409       24.753736
  H           35.474993        7.210442       25.220384
  H           34.979799        8.624860       26.170756
  H           34.147350        8.025905       23.280672
  H           33.096670        7.806461       24.678963
  H           30.710646       11.758740       25.853223
  H           31.568342       13.273398       25.493960
  H           32.171106       12.235197       26.796540
  C           21.619472       16.028929       27.180571
  C           21.819031       15.241296       25.906361
  O           23.113483       15.493779       25.355318
  C           23.194065       16.578938       24.540127
  O           22.284326       17.327989       24.244159
  O           24.475345       16.678593       24.107702
  C           24.707490       17.782031       23.231726
  H           22.415910       15.801833       27.903768
  H           20.650434       15.788738       27.638582
  H           21.656806       17.100377       26.993743
  H           21.770279       14.161174       26.126270
  H           21.019836       15.444420       25.178950
  H           24.097566       17.691207       22.320274
  H           25.760650       17.770172       22.942220
  H           24.500724       18.725934       23.740346
  C           11.178775       18.252933       15.692835
  C           12.375773       18.805365       16.431627
  O           12.310025       20.231418       16.502695
  C           12.833316       20.889079       15.433935
  O           13.342476       20.382595       14.453868
  O           12.691171       22.219272       15.655251
  C           13.205256       23.039843       14.605880
  H           10.244502       18.589623       16.164720
  H           11.195438       17.154653       15.691453
  H           11.155755       18.599058       14.661347
  H           12.375016       18.433103       17.470290
  H           13.318894       18.462863       15.981832
  H           14.286391       22.878491       14.478941
  H           13.044465       24.084420       14.881749
  H           12.675000       22.844862       13.671423
  C           11.171231        3.475626       22.473424
  C           11.492260        4.913416       22.136522
  O           12.708597        5.319478       22.767900
  C           12.573919        5.786275       24.037768
  O           11.536693        5.889839       24.662057
  O           13.807493        6.123017       24.488875
  C           13.817378        6.637011       25.820983
  H           12.007558        2.817940       22.196104
  H           10.270871        3.142736       21.939535
  H           11.006790        3.346393       23.541393
  H           11.647622        5.013893       21.048788
  H           10.657588        5.582103       22.392019
  H           13.220047        7.558837       25.887562
  H           14.849733        6.877519       26.084607
  H           13.447948        5.887746       26.524206
  C           14.853305       29.003075       12.399434
  C           15.005450       30.453347       12.002741
  O           14.002364       31.255334       12.630143
  C           12.821604       31.334055       11.960658
  O           12.555642       30.800427       10.901978
  O           11.986875       32.121358       12.683141
  C           10.699066       32.297065       12.091977
  H           14.879557       28.897105       13.493500
  H           15.660270       28.395209       11.968381
  H           13.900068       28.598832       12.064432
  H           15.981589       30.832650       12.350133
  H           14.998843       30.573906       10.909799
  H           10.784465       32.785601       11.109613
  H           10.110220       32.943583       12.746480
  H           10.184383       31.338282       12.001222
  C           25.627352       31.322464       14.911212
  C           24.840548       32.437558       14.262134
  O           25.329540       32.698712       12.944679
  C           26.369528       33.571786       12.875647
  O           26.900166       34.137058       13.811163
  O           26.711852       33.706706       11.570575
  C           27.798238       34.605681       11.346055
  H           25.602972       30.418097       14.286370
  H           25.213346       31.078086       15.898824
  H           26.673721       31.595329       15.033513
  H           23.784855       32.134442       14.157094
  H           24.840737       33.344393       14.884027
  H           27.541823       35.619949       11.687391
  H           27.990977       34.643913       10.271583
  H           28.701302       34.248666       11.845469
  C           31.067947       16.201864       24.462823
  C           29.920839       16.736195       25.288918
  O           29.048157       15.675738       25.684970
  C           28.078537       15.357772       24.786453
  O           27.892449       15.886675       23.708523
  O           27.346496       14.342580       25.308087
  C           26.280033       13.904371       24.465812
  H           31.609516       15.419776       25.014132
  H           31.772841       17.005509       24.210282
  H           30.713485       15.750488       23.538206
  H           30.311074       17.191845       26.214931
  H           29.379599       17.532377       24.757641
  H           25.563320       14.720273       24.287975
  H           25.756144       13.092729       24.975594
  H           26.670065       13.522186       23.520185
  C           28.484029       22.217442       22.299141
  C           28.813926       23.428930       23.140132
  O           28.219733       24.604547       22.585282
  C           28.958052       25.231172       21.630911
  O           30.051160       24.889886       21.224784
  O           28.259097       26.314389       21.210549
  C           28.922228       27.076486       20.201458
  H           27.395390       22.106086       22.192535
  H           28.887118       21.304271       22.757549
  H           28.893293       22.309146       21.294953
  H           28.391843       23.304397       24.151931
  H           29.899652       23.543952       23.270781
  H           29.877666       27.472801       20.577055
  H           28.281180       27.920385       19.936897
  H           29.082033       26.471532       19.306532
  C            9.575157       32.298119       29.715752
  C            8.818749       31.356368       30.623911
  O            7.806146       32.058998       31.347752
  C            8.218213       32.634841       32.508443
  O            9.340596       32.599616       32.972466
  O            7.149589       33.256733       33.065122
  C            7.437496       33.907627       34.302962
  H            8.884033       32.819139       29.037677
  H           10.311520       31.749554       29.112971
  H           10.097517       33.063832       30.285949
  H            8.305515       30.589628       30.018849
  H            9.498695       30.814175       31.296816
  H            7.777528       33.180594       35.055825
  H            6.517141       34.371235       34.665059
  H            8.184619       34.691052       34.159949
  C           34.622266       21.971329       14.299749
  C           35.933895       21.256482       14.528709
  O           36.939520       22.175077       14.962186
  C           37.612057       22.809946       13.965574
  O           37.439823       22.663288       12.771787
  O           38.518761       23.638781       14.539613
  C           39.306697       24.374080       13.602974
  H           34.311864       22.508983       15.207206
  H           33.832879       21.257872       14.027081
  H           34.707806       22.711262       13.506350
  H           35.814455       20.510341       15.332704
  H           36.249220       20.699068       13.634864
  H           39.893703       23.693347       12.968130
  H           40.000797       25.004115       14.163671
  H           38.672852       25.019538       12.991398
  C            6.260915        6.665741       14.323990
  C            5.478180        6.937447       13.060146
  O            6.057584        6.247680       11.950410
  C            7.059081        6.912082       11.314664
  O            7.487790        8.013115       11.597920
  O            7.497175        6.128251       10.298650
  C            8.556011        6.706751        9.535102
  H            6.327142        5.584527       14.512376
  H            5.781537        7.144065       15.188804
  H            7.280854        7.037067       14.245618
  H            4.448963        6.555814       13.171800
  H            5.387985        8.016237       12.867332
  H            8.227618        7.643831        9.060719
  H            8.831276        6.001763        8.747497
  H            9.431970        6.880267       10.163582
  C            5.208164       33.988886       30.901968
  C            4.281751       32.864552       31.303756
  O            4.836630       32.117727       32.388819
  C            5.681577       31.115048       32.029238
  O            5.992246       30.804976       30.896259
  O            6.117654       30.513381       33.163448
  C            7.018051       29.428956       32.935179
  H            5.428165       34.634846       31.764079
  H            4.755741       34.601649       30.110554
  H            6.160939       33.606908       30.540565
  H            3.324254       33.281811       31.659416
  H            4.037971       32.219196       30.447493
  H            6.530462       28.633746       32.351314
  H            7.304884       29.015774       33.904770
  H            7.920296       29.779192       32.429521
  C           30.943634        6.459524       18.957626
  C           31.901809        5.434994       19.519800
  O           31.412213        4.912539       20.756868
  C           31.743551        5.633088       21.861234
  O           32.406021        6.651326       21.886233
  O           31.205689        5.010806       22.939227
  C           31.479183        5.661329       24.180525
  H           29.939443        6.026843       18.842351
  H           31.286883        6.816239       17.977098
  H           30.845550        7.316180       19.621569
  H           31.984805        4.583154       18.823465
  H           32.915596        5.847744       19.624554
  H           32.562214        5.695036       24.372638
  H           31.007218        5.083293       24.978162
  H           31.055813        6.667860       24.187790
  C           32.360410       36.091603        7.127046
  C           31.637520       37.379409        7.447648
  O           30.316483       37.110961        7.922828
  C           29.369903       36.975625        6.956251
  O           29.545060       37.066165        5.757326
  O           28.185931       36.724302        7.567519
  C           27.090813       36.561895        6.665776
  H           32.375239       35.428387        8.003873
  H           33.396096       36.292634        6.821363
  H           31.863618       35.547449        6.326175
  H           32.166747       37.910415        8.257186
  H           31.629546       38.061326        6.585079
  H           26.928577       37.479445        6.080300
  H           26.191742       36.367473        7.254818
  H           27.260827       35.709200        6.005165
  C           17.934305       27.004046       10.542398
  C           17.304142       26.221540        9.413514
  O           17.915613       24.935628        9.288883
  C           19.032328       24.898215        8.514192
  O           19.537471       25.836823        7.930971
  O           19.485824       23.620410        8.501713
  C           20.663028       23.430599        7.716244
  H           17.877080       26.438392       11.483494
  H           17.424436       27.967149       10.680116
  H           18.988338       27.195769       10.351202
  H           16.236780       26.048134        9.632761
  H           17.337799       26.782081        8.468124
  H           20.473406       23.683814        6.662239
  H           20.941359       22.375775        7.770821
  H           21.488644       24.025582        8.112165
  C            9.534610       17.209192       26.982180
  C            8.984442       15.802102       27.017053
  O            9.066578       15.261457       28.337642
  C           10.248596       14.664736       28.646443
  O           11.211769       14.550298       27.914663
  O           10.163901       14.211936       29.921747
  C           11.343990       13.553436       30.382796
  H            9.012819       17.846097       27.710869
  H            9.415227       17.648841       25.982703
  H           10.590839       17.227963       27.243575
  H            7.915846       15.814564       26.742559
  H            9.484621       15.156613       26.280667
  H           11.558812       12.664554       29.770635
  H           11.171671       13.228130       31.411185
  H           12.193633       14.239340       30.376318
  C           22.680679        2.014962       22.520566
  C           23.444330        1.969919       21.217259
  O           23.797975        3.288721       20.794534
  C           22.851350        3.935857       20.063976
  O           21.763490        3.499224       19.744268
  O           23.337565        5.161504       19.747775
  C           22.442467        5.957566       18.970674
  H           23.261920        2.542058       23.290779
  H           22.462472        0.999800       22.878802
  H           21.740375        2.551571       22.410204
  H           24.387871        1.415800       21.358972
  H           22.883065        1.429996       20.441009
  H           22.224984        5.471915       18.007428
  H           22.926994        6.915721       18.769994
  H           21.519627        6.147235       19.522754
  C           26.366865        7.635824       26.685272
  C           24.976393        7.718660       26.099160
  O           23.999815        7.847920       27.134818
  C           23.561753        6.675974       27.667025
  O           23.915504        5.559672       27.342939
  O           22.650933        6.971269       28.627132
  C           22.098661        5.824774       29.274700
  H           26.569786        8.508162       27.323042
  H           27.122935        7.599378       25.889327
  H           26.481056        6.752437       27.310482
  H           24.893177        8.619156       25.467035
  H           24.764599        6.861248       25.444113
  H           21.566024        5.187904       28.552415
  H           21.380913        6.169757       30.022313
  H           22.880670        5.257724       29.783932
  C            2.771273       14.142594       19.358512
  C            4.177096       13.832854       18.898597
  O            4.281007       12.470917       18.477490
  C            4.550260       11.577974       19.466811
  O            4.710869       11.832286       20.644024
  O            4.613264       10.344775       18.906587
  C            4.895913        9.299075       19.836867
  H            2.045547       13.910010       18.565968
  H            2.673690       15.204111       19.623389
  H            2.497234       13.544041       20.225077
  H            4.427743       14.457794       18.024511
  H            4.916834       14.076957       19.674679
  H            5.876130        9.454644       20.312232
  H            4.926915        8.355270       19.287894
  H            4.108915        9.233182       20.590984
  C           24.972028       24.089752        9.606829
  C           25.814257       24.479592       10.799505
  O           27.165531       24.725152       10.403579
  C           27.966168       23.626932       10.364935
  O           27.641694       22.487771       10.635729
  O           29.200838       24.027379        9.972721
  C           30.155114       22.968380        9.890989
  H           25.028481       24.861179        8.825411
  H           23.920779       23.961518        9.898260
  H           25.322452       23.160776        9.161288
  H           25.432017       25.419784       11.232321
  H           25.754129       23.725658       11.597671
  H           30.299486       22.496954       10.874815
  H           31.108819       23.394446        9.571593
  H           29.843952       22.227590        9.151524
  C            2.006787       10.757359       32.809386
  C            2.252228        9.282796       33.031250
  O            3.590004        8.934327       32.668036
  C            3.773291        8.631613       31.355264
  O            2.920179        8.626911       30.490117
  O            5.083189        8.329183       31.178338
  C            5.422348        7.984519       29.834844
  H            2.743240       11.358848       33.361426
  H            1.000002       11.039098       33.146294
  H            2.105500       11.021455       31.758287
  H            2.139583        9.044951       34.102763
  H            1.512196        8.667650       32.499227
  H            4.869404        7.090090       29.510422
  H            6.490428        7.758254       29.801524
  H            5.226671        8.822477       29.162582
  C            4.425854       21.631573        4.321209
  C            3.643928       22.264086        3.193237
  O            4.250538       23.492740        2.786503
  C            3.865306       24.589757        3.491308
  O            3.068012       24.615005        4.407815
  O            4.527384       25.660259        2.987050
  C            4.214619       26.893461        3.635270
  H            5.475474       21.484580        4.028648
  H            3.997432       20.657369        4.593022
  H            4.428934       22.266046        5.205366
  H            3.653817       21.596466        2.314837
  H            2.587196       22.401559        3.464378
  H            3.146030       27.131947        3.524632
  H            4.794207       27.685633        3.156060
  H            4.492504       26.853618        4.690539
  C           13.245001       24.239181       18.371189
  C           13.904980       23.136719       19.166680
  O           15.164023       22.783295       18.589705
  C           15.106495       21.853062       17.599776
  O           14.105253       21.308048       17.179332
  O           16.371159       21.634058       17.162442
  C           16.463388       20.667631       16.115393
  H           13.910664       25.110787       18.293112
  H           12.307339       24.555153       18.848107
  H           13.024087       23.916848       17.355513
  H           14.110874       23.490595       20.191267
  H           13.244141       22.263806       19.268737
  H           16.098142       19.687220       16.456551
  H           17.515319       20.564775       15.839781
  H           15.907897       21.000252       15.236078
  C           31.463160       22.721812       20.091181
  C           31.752934       22.650215       21.572635
  O           33.079271       22.170368       21.804101
  C           33.205843       20.817385       21.849025
  O           32.312264       20.004533       21.718301
  O           34.512282       20.530195       22.071149
  C           34.793985       19.132426       22.146544
  H           32.211374       23.345310       19.580958
  H           30.467606       23.148974       19.909784
  H           31.504866       21.736305       19.631467
  H           31.697699       23.661311       22.010851
  H           31.002428       22.043928       22.100136
  H           34.246762       18.668958       22.981256
  H           35.864135       19.010936       22.328527
  H           34.546806       18.639713       21.203922
  C           33.322610       29.416434       13.577398
  C           32.861457       29.348713       12.139848
  O           31.567763       29.939488       11.997232
  C           30.520876       29.104655       12.233196
  O           30.589112       27.931225       12.540942
  O           29.377973       29.813412       12.059884
  C           28.187274       29.054854       12.273487
  H           33.312705       30.455184       13.937679
  H           34.341898       29.019660       13.678002
  H           32.664693       28.847595       14.231513
  H           33.549840       29.928513       11.501599
  H           32.882636       28.317357       11.759116
  H           28.124139       28.219318       11.560120
  H           27.331158       29.712670       12.107825
  H           28.145492       28.687325       13.300900
  C           31.135691       29.603991        9.158589
  C           31.148708       31.105945        9.325219
  O           31.928749       31.720322        8.297077
  C           33.259951       31.813104        8.557639
  O           33.826257       31.434005        9.563562
  O           33.850216       32.410904        7.493298
  C           35.261438       32.578687        7.631501
  H           30.770822       29.329492        8.158378
  H           30.486356       29.134884        9.910122
  H           32.135612       29.185973        9.257173
  H           30.122579       31.499204        9.226193
  H           31.494905       31.396129       10.327736
  H           35.495028       33.220796        8.494132
  H           35.635399       33.067326        6.729013
  H           35.755468       31.609696        7.728412
  C           13.787771       19.335411       32.124079
  C           14.508965       20.625315       32.440033
  O           15.721106       20.363900       33.150931
  C           15.590295       20.261624       34.500386
  O           14.561111       20.375581       35.136070
  O           16.818395       20.012631       35.018434
  C           16.832627       19.883828       36.440407
  H           14.443596       18.653402       31.564027
  H           12.888524       19.529498       31.523925
  H           13.490734       18.815054       33.032538
  H           14.791636       21.131922       31.501499
  H           13.859782       21.325625       32.985220
  H           16.496654       20.815753       36.919612
  H           17.860692       19.688497       36.753500
  H           16.210935       19.043366       36.755881
  C           10.410599        9.780665        9.889995
  C           10.173996       11.194575       10.368199
  O           11.183677       12.072331        9.865119
  C           12.312902       12.147981       10.618596
  O           12.528757       11.554153       11.656418
  O           13.161687       13.011475       10.008234
  C           14.398967       13.192929       10.697446
  H           10.461844        9.747708        8.792185
  H            9.601753        9.116696       10.223780
  H           11.354808        9.389135       10.263457
  H            9.208788       11.561253        9.979201
  H           10.102654       11.241451       11.464472
  H           14.228475       13.610865       11.701071
  H           15.003744       13.902679       10.128588
  H           14.944620       12.249231       10.761450
  C           23.375247       26.980699       24.892609
  C           24.142619       25.808334       25.458737
  O           23.251031       24.755366       25.832004
  C           22.734017       24.851726       27.085803
  O           22.962859       25.728700       27.895031
  O           21.915337       23.788350       27.279694
  C           21.300177       23.757492       28.567881
  H           22.752329       26.661406       24.044714
  H           24.062301       27.765221       24.547672
  H           22.704989       27.410603       25.634388
  H           24.816335       25.398348       24.687104
  H           24.784428       26.115217       26.297191
  H           22.059901       23.690003       29.361142
  H           20.668499       22.867988       28.621420
  H           20.669533       24.637021       28.713196
  C           36.150254       15.113064        7.204482
  C           35.842579       16.250478        8.150752
  O           36.988783       16.571948        8.941873
  C           37.131064       15.840322       10.079010
  O           36.385348       14.965123       10.471736
  O           38.256429       16.263197       10.706171
  C           38.531087       15.578414       11.928642
  H           37.017723       15.358255        6.574974
  H           35.290748       14.906083        6.552633
  H           36.399115       14.203026        7.746883
  H           35.588814       17.155562        7.572975
  H           34.965724       16.027434        8.775633
  H           37.717206       15.732486       12.653113
  H           39.449264       15.992624       12.351113
  H           38.686252       14.513178       11.745347
  C            8.095893        8.291538       17.168820
  C            7.269535        9.541622       17.364326
  O            5.877624        9.221785       17.421655
  C            5.248990        9.154552       16.217953
  O            5.753815        9.343076       15.128958
  O            3.949285        8.842298       16.445694
  C            3.160806        8.741288       15.259567
  H            7.883441        7.560151       17.961813
  H            9.168498        8.527513       17.187062
  H            7.864880        7.808296       16.221503
  H            7.529612       10.011408       18.328204
  H            7.483894       10.290575       16.588297
  H            3.140950        9.701171       14.721765
  H            2.138565        8.490566       15.551560
  H            3.539297        7.946340       14.613654
  C           28.403890        8.371605       31.161662
  C           28.682927        7.087807       31.908522
  O           28.950445        7.354659       33.287008
  C           30.245122        7.649993       33.578879
  O           31.168909        7.699753       32.791197
  O           30.328102        7.877008       34.913112
  C           31.643696        8.197859       35.365953
  H           27.576202        8.920688       31.633191
  H           28.136907        8.163526       30.116710
  H           29.268992        9.031750       31.171968
  H           27.791687        6.438179       31.875716
  H           29.497421        6.518124       31.438245
  H           32.337794        7.367414       35.166983
  H           31.601578        8.358445       36.445554
  H           31.998352        9.116816       34.894637
  C           10.248186       24.188331       28.168779
  C           10.217533       22.941566       27.315294
  O           10.340415       23.275368       25.930925
  C            9.172855       23.574363       25.301637
  O            8.064770       23.576732       25.800078
  O            9.461366       23.867668       24.009610
  C            8.318186       24.200091       23.221299
  H           11.162410       24.767292       27.974105
  H           10.216778       23.930039       29.235924
  H            9.406159       24.841005       27.946724
  H           11.078123       22.298478       27.566735
  H            9.316777       22.342205       27.511517
  H            7.614618       23.354979       23.179145
  H            8.657019       24.415246       22.205424
  H            7.825701       25.091162       23.616080
  C           16.512913       16.663287       15.284414
  C           17.557661       17.691832       14.917812
  O           17.109792       18.497990       13.825784
  C           17.365471       17.992310       12.589856
  O           17.930892       16.945959       12.341366
  O           16.879870       18.867493       11.675062
  C           17.083466       18.463260       10.320830
  H           15.553796       17.150778       15.511013
  H           16.828580       16.084242       16.162799
  H           16.331517       15.972950       14.462934
  H           17.723816       18.372184       15.770404
  H           18.528246       17.220761       14.705315
  H           18.157392       18.373392       10.098102
  H           16.661348       19.232037        9.669755
  H           16.568919       17.521292       10.119989
  C           21.836217       27.565876       10.112828
  C           21.955588       26.073771        9.905051
  O           23.035721       25.773217        9.018497
  C           22.722971       25.798310        7.695562
  O           21.633374       26.042190        7.216394
  O           23.846129       25.497255        6.998080
  C           23.663000       25.483149        5.582077
  H           22.785537       27.981929       10.479694
  H           21.047349       27.795176       10.841944
  H           21.604482       28.078131        9.181059
  H           22.184555       25.582422       10.866067
  H           21.008015       25.639679        9.554665
  H           22.925323       24.719807        5.292005
  H           24.619027       25.229852        5.118446
  H           23.357346       26.468703        5.224784
  C           18.101655       32.603709       14.247659
  C           18.105167       33.329455       15.573208
  O           16.771478       33.647193       15.977333
  C           16.281826       34.817706       15.488723
  O           16.866471       35.597200       14.762859
  O           15.019033       34.967652       15.959330
  C           14.377250       36.167161       15.525634
  H           17.472414       31.703692       14.301746
  H           19.120002       32.303680       13.965790
  H           17.694118       33.228452       13.455252
  H           18.528299       32.674431       16.353787
  H           18.744839       34.223235       15.540388
  H           14.927477       37.052821       15.877565
  H           13.374791       36.191730       15.958730
  H           14.282878       36.180213       14.437827
  C           25.235508       18.132591       10.243145
  C           24.403940       17.454081       11.307061
  O           25.030905       16.245544       11.742209
  C           24.740901       15.143406       11.000731
  O           24.010779       15.098294       10.030584
  O           25.409890       14.093811       11.538696
  C           25.193796       12.857774       10.857288
  H           26.255386       18.317836       10.609799
  H           24.787262       19.092284        9.952346
  H           25.325966       17.510620        9.354737
  H           24.325445       18.109767       12.190981
  H           23.375097       17.277774       10.961377
  H           24.130821       12.574970       10.890541
  H           25.770852       12.083270       11.367435
  H           25.542296       12.922870        9.824472
  C           24.906288       18.011432        5.799785
  C           23.412349       18.069348        6.020217
  O           23.064765       17.478975        7.274667
  C           22.874736       16.132948        7.248195
  O           22.967242       15.410350        6.275778
  O           22.557233       15.734124        8.504670
  C           22.324339       14.330618        8.626045
  H           25.438548       18.493303        6.632491
  H           25.181669       18.519959        4.865940
  H           25.259653       16.983344        5.750097
  H           23.083664       19.121854        6.060176
  H           22.864811       17.606593        5.186455
  H           21.475799       14.020506        7.997705
  H           22.075904       14.116379        9.667909
  H           23.222894       13.768368        8.363608
  C           17.652023       31.159755       33.083623
  C           16.276362       31.679409       32.735317
  O           16.081088       32.988965       33.273769
  C           15.625567       33.026425       34.554276
  O           15.372367       32.068962       35.258160
  O           15.497675       34.328326       34.911066
  C           15.019727       34.520295       36.242799
  H           18.427743       31.857336       32.736437
  H           17.827076       30.180233       32.618443
  H           17.775963       31.057764       34.159977
  H           16.178960       31.766392       31.639713
  H           15.489587       30.983563       33.060714
  H           14.016634       34.084168       36.363617
  H           14.951088       35.594669       36.427482
  H           15.715700       34.090275       36.966059
  C           37.154224       28.064040       28.150676
  C           37.548172       29.026273       27.053993
  O           37.361150       28.429495       25.768739
  C           38.409046       27.691428       25.315119
  O           39.463062       27.505537       25.890268
  O           38.072779       27.198262       24.097617
  C           39.090718       26.399002       23.494471
  H           36.117963       27.723681       28.012043
  H           37.237896       28.542014       29.136089
  H           37.783359       27.176102       28.143237
  H           36.898014       29.916978       27.090593
  H           38.577197       29.389693       27.188651
  H           40.003583       26.990656       23.328270
  H           38.723176       26.055824       22.524810
  H           39.306657       25.523573       24.110420
  C            5.317272       18.915212        8.054577
  C            5.585442       17.456877        8.346369
  O            4.370157       16.774632        8.663583
  C            3.998910       16.830618        9.970350
  O            4.597780       17.390605       10.867050
  O            2.837106       16.143828       10.101234
  C            2.327254       16.115687       11.434673
  H            4.576082       19.017980        7.248987
  H            6.240163       19.427022        7.749906
  H            4.911321       19.425251        8.925992
  H            6.000917       16.969012        7.448166
  H            6.338548       17.337378        9.138613
  H            3.037819       15.620174       12.113322
  H            1.398538       15.540731       11.431158
  H            2.105040       17.126812       11.782014
  C           36.674796       10.683032        3.062704
  C           36.422370        9.713775        4.194350
  O           36.519206        8.364354        3.733170
  C           35.374947        7.847197        3.211807
  O           34.306015        8.416200        3.112203
  O           35.634540        6.574380        2.823029
  C           34.510850        5.901041        2.254930
  H           37.650773       10.486339        2.596141
  H           36.662594       11.718916        3.427799
  H           35.923926       10.583628        2.281287
  H           37.194487        9.842068        4.972024
  H           35.456880        9.909079        4.683006
  H           33.692824        5.822098        2.986778
  H           34.823447        4.891264        1.979732
  H           34.171602        6.414424        1.352850
  C           19.377621        6.670511       14.939554
  C           17.885320        6.500363       14.772552
  O           17.357292        7.506484       13.905426
  C           17.021938        8.676015       14.512334
  O           17.124813        8.929849       15.696093
  O           16.544804        9.515402       13.560298
  C           16.146686       10.792389       14.059904
  H           19.879208        6.662131       13.961168
  H           19.794837        5.861945       15.554900
  H           19.617429        7.621702       15.410752
  H           17.673565        5.526670       14.298757
  H           17.370846        6.489000       15.744296
  H           15.332034       10.687742       14.792292
  H           15.778692       11.386027       13.220097
  H           16.997795       11.313425       14.503225
  C            7.183942       12.740783       21.476603
  C            6.230711       13.740124       22.090172
  O            6.736671       14.218422       23.338465
  C            6.423992       13.456290       24.420125
  O            5.765363       12.435262       24.417077
  O            6.975544       14.040409       25.512460
  C            6.722479       13.343423       26.732692
  H            8.184882       13.181319       21.362813
  H            6.827526       12.419203       20.488648
  H            7.294623       11.860574       22.106905
  H            6.134656       14.616776       21.427107
  H            5.219955       13.319858       22.194326
  H            5.642504       13.298442       26.939165
  H            7.204173       13.893426       27.544214
  H            7.149267       12.338960       26.696558
  C           26.690015       21.324063       37.726393
  C           25.665923       20.281673       37.341090
  O           26.307152       19.103988       36.846234
  C           26.597627       19.117586       35.518063
  O           26.360552       20.017580       34.736969
  O           27.198834       17.941131       35.212935
  C           27.559411       17.813928       33.837216
  H           27.400803       20.915009       38.458756
  H           26.202206       22.205127       38.164879
  H           27.272004       21.644897       36.864619
  H           25.088956       19.981113       38.232254
  H           24.936617       20.681372       36.621747
  H           26.667484       17.861783       33.194428
  H           28.030293       16.838184       33.698311
  H           28.278121       18.586377       33.555830
  C            2.946841        4.207877       17.458517
  C            3.360276        5.661288       17.480115
  O            4.783648        5.779590       17.535056
  C            5.319569        5.746257       18.784167
  O            4.708775        5.633123       19.828404
  O            6.664617        5.866494       18.661734
  C            7.363832        5.850967       19.906586
  H            3.426918        3.682159       16.620635
  H            1.857439        4.114902       17.353350
  H            3.250533        3.696228       18.369717
  H            3.034253        6.153729       16.548122
  H            2.874139        6.205262       18.302832
  H            7.051307        6.695004       20.539776
  H            8.430950        5.955355       19.698108
  H            7.205168        4.902592       20.424089
  C           29.878427        4.607760       37.422304
  C           30.555106        4.893381       36.101575
  O           29.599388        4.910117       35.038878
  C           29.327251        3.698215       34.485855
  O           29.817185        2.633179       34.805172
  O           28.409923        3.886404       33.505195
  C           28.029784        2.687615       32.829030
  H           29.078341        5.337630       37.612172
  H           30.601073        4.656245       38.248096
  H           29.416251        3.622527       37.425523
  H           31.018343        5.894360       36.130773
  H           31.370167        4.181840       35.905398
  H           28.897857        2.227825       32.333002
  H           27.295357        2.947726       32.063485
  H           27.567543        1.984509       33.525001
  C           25.675332       26.915811       20.143442
  C           25.910127       27.656290       21.439729
  O           24.675277       28.134473       21.977769
  C           24.271960       29.346759       21.512690
  O           24.857649       30.041083       20.705732
  O           23.095223       29.651025       22.113784
  C           22.551201       30.910794       21.719043
  H           24.956808       26.096784       20.291155
  H           26.614591       26.494084       19.760769
  H           25.256441       27.571887       19.382919
  H           26.339611       26.968136       22.187652
  H           26.640604       28.468224       21.312186
  H           23.235387       31.731038       21.983785
  H           21.612840       31.059442       22.258007
  H           22.338162       30.918215       20.648081
  C           30.525922       28.023898       35.400884
  C           30.861318       26.584680       35.717051
  O           32.230614       26.460416       36.107672
  C           33.112352       26.302176       35.084882
  O           32.842821       26.253356       33.901130
  O           34.354446       26.203146       35.619666
  C           35.389965       26.028085       34.652270
  H           30.760434       28.672263       36.257346
  H           29.459384       28.131088       35.161081
  H           31.107840       28.389967       34.557282
  H           30.252816       26.240765       36.570777
  H           30.615721       25.920596       34.875757
  H           35.240571       25.096686       34.085544
  H           36.342125       25.957705       35.182870
  H           35.434094       26.885750       33.977834
  C           15.519414       15.723444       39.365486
  C           15.942007       15.375967       37.956772
  O           14.804259       15.050739       37.155051
  C           14.406616       13.751895       37.214096
  O           14.924389       12.867945       37.867429
  O           13.325728       13.611985       36.407432
  C           12.799187       12.285322       36.368440
  H           14.785412       16.542028       39.357732
  H           16.385218       16.033928       39.965889
  H           15.044624       14.876386       39.856778
  H           16.424273       16.250461       37.487646
  H           16.689929       14.569959       37.948776
  H           13.548341       11.579904       35.978371
  H           11.939887       12.280610       35.694140
  H           12.460652       11.977477       37.359917
  C            7.560413       30.353471       18.018943
  C            8.270874       29.739361       19.202967
  O            8.613685       30.743090       20.161095
  C            9.800273       31.370133       19.943319
  O           10.574690       31.152563       19.032692
  O            9.973013       32.284937       20.929166
  C           11.191360       33.022712       20.828565
  H            6.674097       30.914366       18.348703
  H            7.240955       29.576559       17.311232
  H            8.203004       31.056608       17.492659
  H            7.597798       29.028327       19.711691
  H            9.150481       29.159784       18.887559
  H           12.060496       32.351235       20.897273
  H           11.233381       33.724671       21.664381
  H           11.218805       33.593262       19.897910
  C           13.025701       21.221700       23.587356
  C           11.625871       21.616586       23.997648
  O           10.674304       21.185764       23.021987
  C           10.472174       22.047925       21.990279
  O           11.012025       23.125172       21.834072
  O            9.552873       21.494473       21.161318
  C            9.237410       22.299696       20.025140
  H           13.086855       20.137176       23.417157
  H           13.751070       21.496469       24.365072
  H           13.317060       21.705628       22.657182
  H           11.361651       21.116038       24.944770
  H           11.552762       22.696960       24.188820
  H            8.806927       23.263073       20.337534
  H            8.492378       21.768461       19.428637
  H           10.124410       22.456897       19.407954
  C           22.451672       32.555745       25.561606
  C           22.935468       31.505365       26.534459
  O           24.363388       31.496280       26.597404
  C           24.979177       30.724016       25.663053
  O           24.434624       30.055676       24.806850
  O           26.317304       30.826472       25.856750
  C           27.096409       30.057154       24.940265
  H           22.848802       33.544740       25.831936
  H           21.354463       32.606934       25.558309
  H           22.790343       32.343868       24.549326
  H           22.572226       31.743555       27.548718
  H           22.532170       30.512650       26.287540
  H           26.868013       28.985166       25.038637
  H           28.151046       30.206702       25.182084
  H           26.926908       30.394007       23.915473
  C           18.287250       36.038382       17.697187
  C           18.187812       34.882894       18.666084
  O           19.110344       35.049167       19.745106
  C           20.363239       34.574369       19.513979
  O           20.753121       34.031371       18.499364
  O           21.107165       34.809974       20.622882
  C           22.457178       34.355854       20.522678
  H           18.129361       36.993782       18.217937
  H           17.536331       35.944178       16.901105
  H           19.272758       36.086497       17.238102
  H           17.178011       34.856646       19.109947
  H           18.326103       33.918242       18.156750
  H           22.491826       33.266108       20.373497
  H           22.964799       34.589845       21.461118
  H           22.976454       34.871648       19.712303
  C           21.524181       15.489751       18.118258
  C           22.897946       15.545277       18.745541
  O           22.932413       16.511029       19.798696
  C           23.205083       17.784397       19.407818
  O           23.421146       18.159916       18.272652
  O           23.198291       18.568306       20.514181
  C           23.476106       19.944071       20.251711
  H           20.759672       15.281323       18.880481
  H           21.478283       14.704891       17.351192
  H           21.261037       16.439415       17.656530
  H           23.138465       14.568706       19.199259
  H           23.676252       15.735658       17.992483
  H           24.479385       20.062817       19.815442
  H           23.449038       20.483228       21.201277
  H           22.717091       20.369834       19.592149
  C           30.906922       38.026328       28.123633
  C           30.422167       39.078771       29.093775
  O           29.151729       38.715116       29.638515
  C           28.075205       39.091704       28.898327
  O           28.099975       39.698462       27.845934
  O           26.959783       38.673054       29.545758
  C           25.742369       39.006410       28.878242
  H           30.944808       37.040927       28.609895
  H           31.910521       38.273035       27.751578
  H           30.236058       37.934021       27.271741
  H           31.124151       39.153294       29.941753
  H           30.395544       40.073982       28.626927
  H           25.634593       40.097678       28.785943
  H           24.911494       38.629300       29.478687
  H           25.700809       38.531412       27.895873
  C           18.401578        1.954487       34.741864
  C           19.229430        1.993924       33.478176
  O           20.318857        2.908622       33.617734
  C           20.031794        4.201886       33.311691
  O           18.960144        4.633313       32.935211
  O           21.159289        4.932001       33.496858
  C           21.004495        6.321465       33.206636
  H           19.030366        1.702196       35.607817
  H           17.601259        1.206699       34.659378
  H           17.949499        2.922389       34.949444
  H           19.668980        0.999301       33.291308
  H           18.610936        2.227893       32.599641
  H           20.729309        6.471045       32.151696
  H           21.962914        6.814395       33.384266
  H           20.258823        6.770508       33.865978
  C            6.493991       15.707245       11.586014
  C            7.787740       15.004038       11.246140
  O            7.601447       13.587011       11.228032
  C            7.736926       12.969846       12.431923
  O            8.000660       13.504129       13.490831
  O            7.529225       11.643198       12.243599
  C            7.644948       10.863455       13.434149
  H            5.699554       15.414804       10.884410
  H            6.619905       16.797407       11.539208
  H            6.149444       15.442127       12.583661
  H            8.114209       15.296563       10.233595
  H            8.597375       15.299874       11.928835
  H            8.658255       10.943759       13.855764
  H            7.463365        9.818118       13.174538
  H            6.897435       11.170832       14.168414
  C            9.819778       21.327088       16.627835
  C            8.456423       20.934066       16.107646
  O            8.532762       19.715887       15.363864
  C            8.846464       19.859245       14.048707
  O            9.056203       20.905142       13.466978
  O            8.880706       18.622730       13.493318
  C            9.197232       18.621054       12.100979
  H           10.252549       20.514831       17.229372
  H            9.752994       22.228700       17.251641
  H           10.513576       21.522172       15.812429
  H            7.774993       20.748877       16.955442
  H            8.002458       21.743666       15.518099
  H            8.440135       19.177828       11.528436
  H            9.196678       17.585418       11.753765
  H           10.191485       19.040122       11.932920
  C           17.986625        5.956973       11.060272
  C           17.684727        5.989250        9.579861
  O           16.376365        5.475259        9.321015
  C           16.303635        4.125858        9.171261
  O           17.230354        3.342372        9.231607
  O           15.007533        3.803861        8.936662
  C           14.781285        2.405900        8.754132
  H           17.219325        6.507831       11.623038
  H           18.966083        6.408907       11.267438
  H           17.989160        4.937772       11.441745
  H           17.694907        7.032818        9.221724
  H           18.453451        5.456975        9.001200
  H           15.338018        2.031541        7.881834
  H           13.715045        2.255461        8.570832
  H           15.057685        1.851736        9.653524
  C            4.563514       14.072752        3.259703
  C            3.156041       13.937998        3.793239
  O            2.461246       15.183799        3.702468
  C            2.638383       16.023650        4.756922
  O            3.313376       15.809493        5.744252
  O            1.921769       17.149189        4.515616
  C            2.012392       18.127522        5.551691
  H            4.550740       14.452071        2.227785
  H            5.078218       13.102464        3.270727
  H            5.144812       14.778523        3.849854
  H            2.594364       13.213201        3.179570
  H            3.151285       13.542613        4.819274
  H            1.620364       17.728951        6.499560
  H            1.402438       18.986200        5.262332
  H            3.044302       18.463368        5.673223
  C           13.021773       31.629429       15.819332
  C           11.878459       31.921784       16.763346
  O           10.865322       30.919546       16.653470
  C            9.941254       31.134775       15.679625
  O            9.901170       32.082141       14.919895
  O            9.062434       30.102514       15.706341
  C            8.024674       30.199127       14.730370
  H           13.428066       30.624627       16.004265
  H           13.828910       32.363429       15.946896
  H           12.694498       31.653158       14.781725
  H           12.241536       31.896547       17.804950
  H           11.472452       32.930938       16.602517
  H            7.418833       31.103152       14.893754
  H            7.375473       29.327245       14.837422
  H            8.444273       30.194394       13.722245
  C            6.305076       14.677899       37.760157
  C            4.969415       14.621604       38.464884
  O            3.935637       14.237542       37.555599
  C            3.372911       15.257535       36.854490
  O            3.661833       16.434863       36.936479
  O            2.422543       14.729222       36.044375
  C            1.740113       15.695267       35.244472
  H            6.529201       13.714646       37.279729
  H            7.109898       14.911784       38.470129
  H            6.307244       15.431824       36.975369
  H            4.999849       13.854155       39.257030
  H            4.738816       15.572963       38.965724
  H            1.212007       16.423355       35.878501
  H            1.000435       15.170631       34.635593
  H            2.438849       16.202781       34.576193
  C            8.684861       14.221159       17.227466
  C            7.493784       15.150898       17.254333
  O            6.303568       14.456240       16.875075
  C            6.064835       14.404274       15.537575
  O            6.754427       14.888787       14.662355
  O            4.911947       13.716018       15.348490
  C            4.532743       13.585396       13.978110
  H            8.507059       13.346995       17.870214
  H            9.588889       14.736935       17.578476
  H            8.870367       13.844195       16.223581
  H            7.334654       15.520531       18.281683
  H            7.663487       16.039660       16.629510
  H            4.360929       14.573547       13.525300
  H            3.597943       13.021902       13.936577
  H            5.292492       13.033735       13.420570
  C           38.216010       18.813323        2.528102
  C           38.418432       18.571967        4.006132
  O           37.380113       17.739577        4.527689
  C           36.256743       18.395027        4.923953
  O           36.067543       19.594389        4.878873
  O           35.378581       17.470937        5.386003
  C           34.143664       18.022552        5.843713
  H           38.154835       17.858878        1.985706
  H           39.046038       19.400645        2.112643
  H           37.286643       19.346502        2.337585
  H           39.369317       18.036180        4.167838
  H           38.499298       19.518129        4.560514
  H           34.312537       18.711645        6.684923
  H           33.514038       17.201587        6.193980
  H           33.624778       18.530883        5.028386
  C           32.590846       38.778873       32.796408
  C           32.899387       37.493868       33.529459
  O           34.301807       37.219656       33.497444
  C           34.734366       36.542216       32.400827
  O           34.049202       36.156252       31.474608
  O           36.073347       36.366799       32.523133
  C           36.667370       35.659816       31.434045
  H           33.173380       39.611970       33.215340
  H           31.522831       39.023699       32.873250
  H           32.853416       38.706542       31.742783
  H           32.617654       37.595592       34.591381
  H           32.310808       36.653824       33.133225
  H           36.246165       34.646560       31.350993
  H           37.738194       35.571049       31.630402
  H           36.532856       36.209922       30.500402
  C           17.694752       15.805517       28.178160
  C           17.769338       14.532997       27.366415
  O           16.969997       13.508196       27.961258
  C           17.591148       12.774176       28.922500
  O           18.736848       12.907640       29.304415
  O           16.704360       11.856971       29.381784
  C           17.226640       11.005932       30.402448
  H           16.650156       16.127658       28.296247
  H           18.257791       16.612165       27.689483
  H           18.097118       15.660965       29.178913
  H           17.360583       14.712040       26.357325
  H           18.809925       14.207236       27.224436
  H           18.080659       10.423467       30.025107
  H           16.439924       10.308480       30.698654
  H           17.516554       11.590234       31.278199
  C           20.723238        6.516858       39.255569
  C           20.586416        5.494990       38.150641
  O           19.471007        5.805342       37.312462
  C           18.275528        5.313726       37.734059
  O           18.080771        4.647472       38.731293
  O           17.331215        5.695399       36.838963
  C           16.014919        5.241833       37.155891
  H           20.804393        7.530177       38.836643
  H           21.615917        6.315614       39.863126
  H           19.852930        6.512543       39.908902
  H           21.484305        5.518856       37.509840
  H           20.521831        4.473825       38.553322
  H           15.974873        4.142228       37.172120
  H           15.336283        5.598278       36.377752
  H           15.687487        5.652751       38.113145
  C           26.655378       21.834079       19.466915
  C           27.057835       20.482961       20.011254
  O           28.481206       20.368353       20.073540
  C           29.077899       19.937425       18.930360
  O           28.519888       19.644591       17.891528
  O           30.414342       19.886579       19.153822
  C           31.173778       19.442531       18.029153
  H           27.098003       22.640538       20.069083
  H           25.562905       21.947685       19.476777
  H           27.007373       21.970614       18.446250
  H           26.682671       20.371776       21.042898
  H           26.608269       19.665187       19.429673
  H           30.885950       18.419421       17.743845
  H           32.228545       19.435543       18.312909
  H           31.048171       20.126326       17.187103
  C            7.234885       15.437598       30.432102
  C            6.815760       15.370338       31.882485
  O            5.705400       16.236574       32.126892
  C            6.029091       17.524599       32.418126
  O            7.149969       17.987780       32.491583
  O            4.874736       18.207244       32.618277
  C            5.064415       19.585564       32.939299
  H            6.386933       15.200372       29.773618
  H            8.047060       14.726653       30.228559
  H            7.574921       16.436018       30.164084
  H            6.482421       14.346962       32.125356
  H            7.658169       15.588127       32.554806
  H            5.633652       19.693137       33.874926
  H            4.081218       20.039528       33.081918
  H            5.567925       20.104450       32.120987
  C            2.741942       38.860699       32.718141
  C            3.368771       38.993302       34.086827
  O            4.070028       37.798314       34.437887
  C            3.312489       36.833619       35.024485
  O            2.125165       36.900759       35.273590
  O            4.119364       35.776562       35.289407
  C            3.452132       34.680411       35.915550
  H            3.503817       38.605990       31.967428
  H            2.255773       39.799568       32.420373
  H            1.998906       38.065840       32.698237
  H            4.111770       39.808938       34.077265
  H            2.621697       39.265406       34.846393
  H            3.036124       34.981772       36.888750
  H            4.185460       33.889092       36.086268
  H            2.666633       34.287856       35.266481
  C            9.306504       21.198819       33.657870
  C           10.140553       20.024523       33.200495
  O            9.342316       18.841853       33.116178
  C            9.226101       18.138080       34.273674
  O            9.732870       18.417788       35.341967
  O            8.443669       17.058700       34.026011
  C            8.236969       16.219385       35.162509
  H            8.443608       21.342443       32.991775
  H            9.903151       22.121035       33.663287
  H            8.911093       21.037684       34.658862
  H           10.531528       20.219287       32.187280
  H           11.017974       19.878665       33.846993
  H            9.192574       15.810893       35.524384
  H            7.600957       15.385336       34.857631
  H            7.727707       16.768219       35.957389
  C           22.780473       11.799104       20.441094
  C           22.257607       11.192755       21.722792
  O           21.369453       10.108671       21.441822
  C           20.072609       10.461239       21.235692
  O           19.616148       11.586612       21.274158
  O           19.370406        9.329377       20.981918
  C           17.979290        9.550295       20.747843
  H           23.265653       11.031919       19.820668
  H           23.510868       12.591076       20.655114
  H           21.974316       12.224553       19.846616
  H           23.096730       10.775840       22.305420
  H           21.784638       11.951607       22.362748
  H           17.501598        9.998627       21.632042
  H           17.509064        8.582957       20.557462
  H           17.833566       10.182849       19.869754
  C            2.069707        7.770626        3.880930
  C            2.275970        9.058128        3.116998
  O            3.662368        9.259265        2.833369
  C            4.369230        9.882831        3.813223
  O            3.934253       10.277329        4.876927
  O            5.653464        9.992892        3.392235
  C            6.517293       10.637903        4.328483
  H            2.494596        6.920846        3.327536
  H            1.000000        7.582975        4.045288
  H            2.567566        7.800003        4.848180
  H            1.755949        9.000619        2.145571
  H            1.840456        9.915785        3.649775
  H            6.183380       11.668660        4.520946
  H            7.519137       10.677241        3.895055
  H            6.566916       10.069554        5.259567
  C           34.525446       10.453391       36.857721
  C           34.508832       11.636701       35.917880
  O           33.176426       11.915373       35.481947
  C           32.764979       11.213490       34.392603
  O           33.416555       10.396736       33.772392
  O           31.492406       11.589306       34.113460
  C           30.928255       10.929108       32.980027
  H           33.851562       10.626794       37.709021
  H           35.538913       10.276546       37.242573
  H           34.182144        9.548150       36.360746
  H           34.866722       12.536153       36.447315
  H           35.191936       11.485799       35.069530
  H           31.505640       11.153961       32.070595
  H           29.910964       11.301906       32.841320
  H           30.880123        9.851258       33.148320
  C           39.344468       22.643143       16.984435
  C           38.336005       23.637139       17.512425
  O           37.552841       23.054239       18.556399
  C           36.457171       22.364159       18.141794
  O           36.094228       22.209587       16.992586
  O           35.832188       21.877986       19.242536
  C           34.651603       21.128008       18.955217
  H           39.978089       22.265627       17.799853
  H           39.988544       23.108174       16.225875
  H           38.853801       21.780169       16.538542
  H           38.862146       24.501608       17.952048
  H           37.705697       24.037483       16.705247
  H           33.904081       21.756747       18.448366
  H           34.227285       20.786540       19.902029
  H           34.891513       20.251762       18.349382
  C            8.136482       35.926725       39.213264
  C            7.788671       34.733985       38.352917
  O            8.970371       34.148234       37.802025
  C            9.398718       34.697735       36.634477
  O            8.874623       35.614606       36.033669
  O           10.519015       34.036808       36.251449
  C           11.081338       34.509912       35.027208
  H            8.848382       35.640469       40.000764
  H            7.236032       36.340125       39.687385
  H            8.610072       36.712505       38.627976
  H            7.305874       33.958359       38.971554
  H            7.063269       35.000497       37.570700
  H           10.369727       34.384471       34.197223
  H           11.970705       33.914357       34.809402
  H           11.381639       35.555527       35.121594
  C           13.237780        8.631219       29.452210
  C           12.366619        9.052526       28.291443
  O           11.637887       10.239348       28.613006
  C           10.456099       10.037221       29.254194
  O            9.977583        8.964099       29.563602
  O            9.897459       11.250700       29.486550
  C            8.638224       11.190508       30.157001
  H           13.910811        9.449215       29.746850
  H           13.845120        7.755850       29.185067
  H           12.639423        8.382344       30.326470
  H           12.999726        9.292268       27.420180
  H           11.699496        8.238364       27.973343
  H            7.901035       10.640088       29.553189
  H            8.276370       12.212176       30.292487
  H            8.749106       10.731019       31.141366
  C           32.712157       27.106828        4.513371
  C           32.465093       28.297522        3.616150
  O           33.699177       28.813928        3.112800
  C           34.319968       29.717119        3.917451
  O           33.923849       30.115503        4.994800
  O           35.465098       30.102608        3.302084
  C           36.224601       31.061556        4.038544
  H           33.284303       26.333789        3.980493
  H           31.762354       26.670471        4.850962
  H           33.294744       27.385240        5.389372
  H           31.868562       27.985903        2.741825
  H           31.878186       29.072767        4.129605
  H           35.646595       31.986248        4.186368
  H           37.118131       31.304565        3.459189
  H           36.538838       30.646840        4.998578
  C            8.456626       26.230704       37.108290
  C            8.460630       26.924176       38.451004
  O            7.137550       26.990976       38.987657
  C            6.403125       28.062225       38.585606
  O            6.766969       28.945396       37.834656
  O            5.185667       27.975646       39.176285
  C            4.302464       29.047246       38.843982
  H            8.005028       25.231638       37.190907
  H            9.479643       26.122796       36.723201
  H            7.869690       26.784668       36.378269
  H            9.067049       26.343413       39.166804
  H            8.925620       27.918641       38.388373
  H            4.718762       30.011569       39.172274
  H            3.358519       28.884653       39.368987
  H            4.101790       29.060409       37.770689
  C           18.000914        1.885967       20.618835
  C           18.600413        3.149062       20.045256
  O           18.427601        3.190006       18.626996
  C           19.395515        2.562288       17.907474
  O           20.370015        1.990377       18.354203
  O           19.084414        2.689956       16.593884
  C           20.025242        2.075614       15.712846
  H           16.940794        1.800408       20.340042
  H           18.077182        1.881991       21.714585
  H           18.502370        0.999787       20.234743
  H           18.076450        4.028585       20.456717
  H           19.656807        3.258003       20.330325
  H           21.019683        2.533672       15.823617
  H           19.685677        2.236906       14.687283
  H           20.074974        0.999929       15.894027
  C           17.254631       38.010126        6.717127
  C           17.869695       39.387541        6.807814
  O           19.277171       39.296708        7.039678
  C           19.643358       39.192530        8.344919
  O           18.897821       39.175948        9.304189
  O           20.996246       39.114048        8.391128
  C           21.525830       39.003577        9.712542
  H           17.753104       37.415041        5.938475
  H           16.184871       38.076879        6.477008
  H           17.365050       37.464806        7.652400
  H           17.737137       39.917005        5.848910
  H           17.369818       40.001484        7.570898
  H           21.263625       39.887872       10.312769
  H           22.614293       38.949571        9.638834
  H           21.167597       38.091595       10.194577
  C           33.373058       24.962005       31.544147
  C           31.870080       24.871194       31.673031
  O           31.234897       25.882408       30.887545
  C           31.082078       27.084188       31.504774
  O           31.424746       27.362495       32.636773
  O           30.472017       27.923941       30.632282
  C           30.242272       29.233696       31.152435
  H           33.674637       24.900254       30.488621
  H           33.860746       24.147630       32.096825
  H           33.746634       25.910218       31.925767
  H           31.522366       23.898889       31.284294
  H           31.553604       24.913787       32.725233
  H           29.580685       29.193740       32.030902
  H           29.748644       29.824980       30.377958
  H           31.187988       29.717706       31.404935
  C            3.345462       10.569353       23.208013
  C            1.945663       10.932425       22.769219
  O            1.486056       10.034369       21.756669
  C            1.829147       10.371255       20.484900
  O            2.470269       11.345719       20.144781
  O            1.323905        9.425670       19.654719
  C            1.606644        9.655284       18.274091
  H            3.384689        9.524718       23.548748
  H            3.676460       11.219199       24.029378
  H            4.054236       10.662119       22.387444
  H            1.252364       10.834653       23.621966
  H            1.886198       11.980469       22.441855
  H            1.164489       10.605453       17.938416
  H            1.157288        8.844751       17.695977
  H            2.684091        9.648607       18.096710
  C           11.209115       17.447745        4.743043
  C           11.579594       18.141914        3.452820
  O           12.956371       17.920739        3.138870
  C           13.827482       18.797432        3.705594
  O           13.543179       19.729628        4.431184
  O           15.078493       18.450793        3.313916
  C           16.104441       19.295753        3.835714
  H           11.441122       16.374588        4.684682
  H           10.137392       17.564285        4.953586
  H           11.771638       17.848553        5.584007
  H           10.990155       17.719111        2.621436
  H           11.337047       19.213807        3.489106
  H           15.967504       20.332447        3.492911
  H           17.064940       18.934759        3.461247
  H           16.121053       19.250455        4.926618
  C           35.304791       15.785611       13.950894
  C           35.242506       17.090758       14.710177
  O           34.196319       17.920767       14.200689
  C           34.541541       18.704787       13.144879
  O           35.633862       18.762461       12.615912
  O           33.447580       19.420251       12.784378
  C           33.667024       20.298106       11.679835
  H           34.332608       15.273066       13.983414
  H           36.066452       15.121311       14.381101
  H           35.542251       15.948949       12.901497
  H           35.006343       16.892820       15.769634
  H           36.213149       17.607363       14.701763
  H           34.437838       21.045014       11.922676
  H           32.732441       20.824443       11.473378
  H           33.947334       19.731764       10.789282
  C           39.109311       17.243527       17.199616
  C           38.410205       18.581392       17.271513
  O           37.952005       18.980745       15.977848
  C           38.863803       19.647446       15.221055
  O           40.000829       19.929481       15.543431
  O           38.277967       19.949299       14.036032
  C           39.126442       20.660439       13.134272
  H           38.448198       16.485647       16.755266
  H           39.406878       16.905819       18.201568
  H           39.998549       17.294524       16.574351
  H           37.518052       18.499757       17.915562
  H           39.052924       19.346599       17.730283
  H           39.430164       21.626595       13.564733
  H           38.562598       20.854784       12.219171
  H           40.002569       20.061061       12.878251
  C           20.428867       23.078053       15.393371
  C           21.451901       22.013337       15.715214
  O           21.988010       22.209265       17.025634
  C           23.046357       23.059803       17.096959
  O           23.564053       23.646713       16.167536
  O           23.429816       23.136769       18.395279
  C           24.544472       24.000280       18.620426
  H           19.635497       23.094016       16.154429
  H           19.970627       22.893284       14.412363
  H           20.878505       24.069022       15.383135
  H           20.968631       21.021448       15.712485
  H           22.243412       21.972977       14.952993
  H           25.430734       23.643170       18.074521
  H           24.772243       23.989402       19.688650
  H           24.301145       25.024572       18.330567
  C           17.645393       31.137105       21.452263
  C           17.995249       32.328506       20.590890
  O           16.982310       33.332628       20.684147
  C           15.939730       33.184879       19.824032
  O           15.802084       32.300310       19.002514
  O           15.075186       34.206719       20.040842
  C           13.923708       34.180953       19.196902
  H           17.482088       31.448349       22.494068
  H           18.451702       30.391512       21.430891
  H           16.726359       30.661334       21.115634
  H           18.932415       32.785223       20.952179
  H           18.179024       32.030700       19.548470
  H           14.214102       34.263254       18.138649
  H           13.298619       35.040538       19.448848
  H           13.343560       33.271594       19.366887
  C           33.014136       25.671408       19.981499
  C           32.835187       25.901860       18.498708
  O           34.096799       26.136917       17.869357
  C           34.519374       27.429128       17.884243
  O           33.930361       28.375177       18.368345
  O           35.720009       27.480119       17.256170
  C           36.286401       28.789341       17.193421
  H           33.714308       24.843091       20.161913
  H           32.053704       25.428947       20.456139
  H           33.429221       26.549981       20.471513
  H           32.408309       24.998015       18.031546
  H           32.123439       26.716511       18.301582
  H           35.631985       29.470533       16.628871
  H           37.242955       28.720907       16.670525
  H           36.469847       29.176685       18.197768
  C           25.637669       33.798466        9.159742
  C           24.541898       33.720874        8.121924
  O           24.617207       34.831631        7.225517
  C           23.966136       35.952311        7.636348
  O           23.339043       36.084769        8.668583
  O           24.135779       36.902987        6.684489
  C           23.496390       38.144044        6.984086
  H           26.623499       33.859576        8.676724
  H           25.619991       32.914065        9.810911
  H           25.533042       34.686214        9.780433
  H           24.670985       32.809594        7.513396
  H           23.550020       33.641433        8.589863
  H           22.407715       38.010222        7.072851
  H           23.691041       38.834059        6.160017
  H           23.906633       38.576040        7.899225
  C            2.093845       26.752585       34.445011
  C            2.616948       28.170386       34.443087
  O            2.197524       28.860705       33.263875
  C            3.005574       28.702238       32.181959
  O            4.027635       28.046903       32.134751
  O            2.470952       29.411712       31.157544
  C            3.224189       29.339099       29.946692
  H            0.999211       26.744621       34.341992
  H            2.362324       26.240209       35.378761
  H            2.495123       26.181337       33.610175
  H            2.198177       28.721601       35.302269
  H            3.709665       28.195796       34.563192
  H            4.234719       29.750205       30.090986
  H            2.713355       29.941559       29.192245
  H            3.275679       28.309036       29.587920
  C           24.583479       23.176579       35.616446
  C           23.197681       22.672928       35.285235
  O           23.053884       21.303740       35.669482
  C           23.460856       20.396413       34.742264
  O           23.918336       20.642987       33.643987
  O           23.261998       19.158367       35.258306
  C           23.645127       18.097070       34.383287
  H           24.801422       23.033418       36.684578
  H           24.675945       24.245113       35.379415
  H           25.345536       22.632771       35.061611
  H           22.448054       23.245940       35.857176
  H           22.957852       22.825374       34.223000
  H           23.055006       18.125052       33.454861
  H           23.443728       17.150215       34.889255
  H           24.713149       18.148870       34.161823
  C           25.528971       37.014178       21.011050
  C           25.390215       38.181434       21.960818
  O           25.321567       37.725028       23.313586
  C           24.077428       37.393273       23.750230
  O           23.047456       37.455002       23.108633
  O           24.185679       36.982289       25.037853
  C           22.943855       36.602816       25.631716
  H           26.404616       36.403720       21.274653
  H           25.644621       37.365818       19.976896
  H           24.660544       36.360020       21.058082
  H           26.280971       38.828289       21.886435
  H           24.528250       38.812101       21.699331
  H           22.246334       37.453677       25.654080
  H           23.140008       36.293023       26.660624
  H           22.504149       35.759060       25.095866
  C           27.443792       26.374583       28.205908
  C           28.532108       25.766035       27.352072
  O           28.166245       24.449750       26.931907
  C           28.479061       23.455469       27.804920
  O           29.032193       23.585991       28.878842
  O           28.067189       22.282804       27.262868
  C           28.337153       21.141240       28.076962
  H           26.485453       26.376084       27.666942
  H           27.695257       27.408661       28.477843
  H           27.292485       25.804300       29.120339
  H           28.666204       26.367996       26.437162
  H           29.501494       25.773390       27.871050
  H           29.419464       21.024604       28.238205
  H           27.971176       20.255780       27.552442
  H           27.812185       21.217700       29.031405
  C            3.663743       24.039763       30.326961
  C            3.791294       24.979061       31.503928
  O            3.852851       24.245968       32.729401
  C            2.648796       23.934260       33.278664
  O            1.556037       24.222147       32.832237
  O            2.880936       23.244454       34.422727
  C            1.694784       22.851845       35.113886
  H            4.489729       23.314086       30.320649
  H            3.679162       24.597460       29.380791
  H            2.739290       23.467621       30.375328
  H            4.733181       25.548169       31.424146
  H            2.981410       25.722755       31.514251
  H            1.110639       23.733625       35.417594
  H            1.990349       22.309382       36.014705
  H            1.091530       22.186036       34.493256
  C           35.136297        5.992618       20.740627
  C           36.556430        5.758148       21.201114
  O           37.352159        6.927747       20.996536
  C           37.911596        7.038764       19.762313
  O           37.800451        6.248425       18.846174
  O           38.624478        8.191802       19.732269
  C           39.275953        8.438392       18.485845
  H           34.704773        6.866830       21.248997
  H           34.508539        5.116963       20.954281
  H           35.094759        6.194614       19.672089
  H           36.565690        5.550657       22.284747
  H           36.996314        4.875772       20.714272
  H           40.000007        7.641062       18.259991
  H           39.819601        9.382246       18.567613
  H           38.543189        8.531548       17.681620
  C           24.351469        2.420331       16.374051
  C           23.937374        3.869370       16.486358
  O           22.602375        4.050460       16.008879
  C           22.489745        4.260115       14.670238
  O           23.401537        4.310618       13.868748
  O           21.172904        4.408597       14.383041
  C           20.903695        4.641317       13.000229
  H           23.641573        1.773184       16.908981
  H           25.353321        2.268136       16.797879
  H           24.361718        2.090674       15.336978
  H           23.942110        4.175584       17.546362
  H           24.647860        4.531542       15.970764
  H           21.383634        5.571627       12.660847
  H           19.823566        4.748200       12.877764
  H           21.236626        3.794450       12.396596
  C           29.062907       12.353809       13.295939
  C           27.776057       12.221505       12.514714
  O           26.716524       12.926128       13.165787
  C           26.053652       12.221211       14.120928
  O           26.275216       11.074229       14.455058
  O           25.091680       13.025375       14.637193
  C           24.307069       12.408800       15.658476
  H           29.316637       13.413090       13.445756
  H           29.891831       11.865871       12.765561
  H           28.974180       11.906149       14.283881
  H           27.898514       12.678213       11.517808
  H           27.517774       11.166844       12.341277
  H           23.773500       11.531067       15.263648
  H           23.566460       13.134285       16.002382
  H           24.934086       12.127995       16.507239
  C           26.884610       37.600483       25.694356
  C           26.457146       36.198558       26.062703
  O           25.487398       36.226785       27.112366
  C           25.998369       36.259190       28.371913
  O           27.175495       36.260715       28.673031
  O           24.957914       36.285365       29.241031
  C           25.349724       36.317278       30.613717
  H           26.012177       38.210723       25.419824
  H           27.582488       37.584151       24.846300
  H           27.369848       38.099215       26.531082
  H           25.974873       35.717526       25.194705
  H           27.321179       35.570236       26.323007
  H           25.926693       35.417494       30.875432
  H           24.444647       36.334146       31.224986
  H           25.926468       37.219572       30.827335
  C           30.893435       35.447710       10.423123
  C           31.223603       33.997488       10.155453
  O           30.207601       33.143191       10.685468
  C           30.363460       32.799601       11.991705
  O           31.269788       33.142620       12.724649
  O           29.325806       31.997635       12.336267
  C           29.362041       31.553207       13.692723
  H           29.903400       35.699814       10.016708
  H           31.640564       36.108134        9.962539
  H           30.860332       35.655737       11.490797
  H           31.255742       33.818984        9.067104
  H           32.219236       33.734203       10.540804
  H           30.267618       30.957879       13.883813
  H           28.490849       30.917300       13.865197
  H           29.309018       32.402911       14.376529
  C           25.290837       37.389815       10.115154
  C           25.664727       38.827073       10.394969
  O           26.875556       39.173572        9.719076
  C           28.019168       38.883721       10.394900
  O           28.097450       38.374696       11.495384
  O           29.065726       39.268350        9.623293
  C           30.342383       39.025226       10.214764
  H           25.211465       37.215115        9.032528
  H           24.328688       37.140146       10.582523
  H           26.046307       36.703452       10.492610
  H           24.878854       39.497263       10.006835
  H           25.730824       39.022204       11.475087
  H           30.449975       39.587392       11.154654
  H           31.110380       39.370301        9.518917
  H           30.488462       37.956833       10.386802
  C            6.961621       21.707437       30.698172
  C            7.730083       22.150708       29.474743
  O            7.203763       23.378593       28.966524
  C            6.162640       23.248353       28.101827
  O            5.659222       22.206697       27.730581
  O            5.783224       24.492609       27.719113
  C            4.691291       24.508555       26.799206
  H            6.967707       22.495672       31.464689
  H            7.403568       20.797695       31.126604
  H            5.919305       21.505333       30.459362
  H            8.782199       22.341990       29.746521
  H            7.748095       21.365568       28.705113
  H            4.957836       23.985034       25.868680
  H            4.467941       25.549539       26.555140
  H            3.802699       24.062327       27.250521
  C           33.318708       10.219068       30.241400
  C           32.222519       10.814696       29.388525
  O           32.578939       12.129447       28.955635
  C           32.265404       13.129153       29.822171
  O           31.718769       13.004459       30.900105
  O           32.667959       14.299539       29.268325
  C           32.396154       15.446270       30.074509
  H           34.274131       10.218325       29.697281
  H           33.074348        9.185912       30.523139
  H           33.471815       10.797644       31.150305
  H           32.086793       10.204531       28.479307
  H           31.255991       10.806359       29.912789
  H           31.314106       15.558372       30.240653
  H           32.754476       16.329361       29.540791
  H           32.926652       15.380484       31.026687
  C           33.251674       29.026550       22.560029
  C           31.948368       28.874589       21.810294
  O           31.872236       29.814638       20.736277
  C           31.383240       31.038221       21.071427
  O           31.010966       31.389159       22.173496
  O           31.378983       31.803902       19.952358
  C           30.881998       33.126777       20.156828
  H           34.105547       28.924691       21.874882
  H           33.339392       28.264330       23.346047
  H           33.330793       30.008925       23.021527
  H           31.894689       27.868983       21.359434
  H           31.084364       28.956491       22.485489
  H           29.836055       33.101852       20.497976
  H           30.918598       33.654834       19.201361
  H           31.507082       33.665301       20.872133
  C           22.832188       25.440087       21.693668
  C           21.849834       25.631778       20.561398
  O           22.527025       26.037986       19.370009
  C           22.727576       27.377015       19.245982
  O           22.385251       28.233968       20.036389
  O           23.377393       27.592404       18.075535
  C           23.653140       28.968007       17.810059
  H           23.613363       24.720387       21.409592
  H           22.322027       25.067937       22.592412
  H           23.335351       26.372155       21.943419
  H           21.352391       24.673197       20.335403
  H           21.051644       26.336188       20.836715
  H           22.719357       29.545636       17.736606
  H           24.172008       29.031477       16.850972
  H           24.303551       29.384931       18.581772
  C           16.391792       18.166931       23.462689
  C           16.318810       19.584828       23.980416
  O           17.176986       19.753328       25.110966
  C           16.625146       19.428138       26.310267
  O           15.495133       19.023155       26.498308
  O           17.560867       19.640006       27.268463
  C           17.114204       19.340931       28.591280
  H           17.430212       17.896048       23.223510
  H           15.781370       18.051723       22.556812
  H           16.041819       17.454903       24.207561
  H           16.673689       20.282540       23.202818
  H           15.283377       19.876920       24.207709
  H           16.261960       19.979482       28.868649
  H           17.935446       19.546116       29.281613
  H           16.847812       18.285424       28.676958
  C           24.768038        7.800647       12.845851
  C           24.017155        8.247224       14.078955
  O           22.616434        8.003620       13.931854
  C           21.918916        8.992103       13.311396
  O           22.370821       10.037533       12.888125
  O           20.620049        8.607648       13.250242
  C           19.762436        9.560185       12.620977
  H           24.564116        6.741629       12.631847
  H           25.850400        7.929270       12.981677
  H           24.460653        8.366397       11.968503
  H           24.353778        7.661049       14.951012
  H           24.224802        9.300578       14.316497
  H           19.760345       10.509892       13.176902
  H           18.746908        9.157961       12.625422
  H           20.064180        9.722186       11.584104
  C           12.121749       28.165454       15.097183
  C           10.763030       28.423167       14.487867
  O           10.560028       27.595339       13.340483
  C           11.033347       28.101183       12.170572
  O           11.593447       29.168920       12.020488
  O           10.765882       27.201966       11.191557
  C           11.207915       27.607052        9.895674
  H           12.238769       27.100358       15.343711
  H           12.254775       28.754801       16.014502
  H           12.921247       28.420295       14.404247
  H            9.974878       28.161566       15.214352
  H           10.623849       29.488056       14.251773
  H           10.705505       28.535535        9.585025
  H           10.944110       26.820216        9.185466
  H           12.292442       27.733627        9.882302
  C           16.058145       30.831061       16.718661
  C           16.918444       29.591201       16.638464
  O           17.481123       29.284720       17.916142
  C           18.650970       29.916677       18.200199
  O           19.244849       30.693501       17.478983
  O           19.045447       29.523110       19.436360
  C           20.273349       30.110582       19.867558
  H           15.277624       30.710780       17.483657
  H           15.575129       31.032463       15.752931
  H           16.645552       31.703128       16.999286
  H           16.297583       28.726956       16.346896
  H           17.693615       29.689218       15.864769
  H           21.097401       29.829671       19.194485
  H           20.500428       29.729023       20.865531
  H           20.178938       31.196817       19.927381
  C           19.068178       17.776732       32.445395
  C           18.044319       18.540896       33.252592
  O           18.607542       19.750281       33.765591
  C           19.257395       19.627946       34.953582
  O           19.391795       18.608378       35.600666
  O           19.729675       20.852010       35.295953
  C           20.437392       20.874430       36.535887
  H           19.472415       18.405897       31.639391
  H           18.620002       16.878907       31.998685
  H           19.911037       17.471289       33.062317
  H           17.201121       18.831288       32.602908
  H           17.617435       17.918818       34.052522
  H           19.780335       20.572122       37.365276
  H           20.770779       21.898492       36.718233
  H           21.317092       20.229312       36.487403
  C           33.961384       12.268973        6.695656
  C           33.334053       11.370012        7.735908
  O           32.776280       12.143826        8.800380
  C           33.643315       12.468419        9.796116
  O           34.817127       12.161039        9.859222
  O           32.964233       13.196999       10.716235
  C           33.756838       13.607259       11.830804
  H           33.227764       12.997634        6.321817
  H           34.335077       11.680107        5.847074
  H           34.789998       12.838371        7.112172
  H           32.502883       10.802675        7.283486
  H           34.051055       10.623549        8.107122
  H           34.143248       12.733556       12.377001
  H           33.119811       14.180744       12.507866
  H           34.576953       14.249363       11.502914
  C           15.173273       17.198788        6.143334
  C           15.061418       15.897676        6.903859
  O           14.682833       14.833147        6.028387
  C           13.344203       14.685352        5.841765
  O           12.466972       15.358370        6.345561
  O           13.156205       13.645315        4.992307
  C           11.784435       13.370724        4.706567
  H           15.877879       17.097060        5.305431
  H           15.524469       18.005043        6.801448
  H           14.215481       17.492656        5.718392
  H           16.044509       15.629429        7.326914
  H           14.373008       15.988399        7.756479
  H           11.241604       13.100050        5.624755
  H           11.743701       12.521303        4.021056
  H           11.314505       14.228305        4.220645
  C           15.901256       30.774922       26.570560
  C           14.862442       30.581310       27.650921
  O           13.864346       29.649173       27.229109
  C           12.834886       30.184448       26.520383
  O           12.692191       31.355086       26.227904
  O           11.985857       29.177685       26.197616
  C           10.845639       29.598586       25.448253
  H           16.346091       29.810764       26.285217
  H           16.702131       31.442483       26.916193
  H           15.461849       31.200261       25.670388
  H           15.337897       30.155258       28.550823
  H           14.420442       31.539582       27.959871
  H           10.242749       30.315659       26.025601
  H           10.230276       28.719624       25.243669
  H           11.152268       30.033827       24.494868
  C           26.115033       34.363690       22.981690
  C           25.334740       33.303301       23.723659
  O           25.065434       33.720973       25.063818
  C           26.044662       33.442221       25.964933
  O           27.096912       32.879559       25.735844
  O           25.638101       33.900960       27.174423
  C           26.575367       33.670910       28.226759
  H           25.579616       35.323758       23.004013
  H           26.268832       34.071767       21.934013
  H           27.087861       34.532379       23.439346
  H           24.357877       33.150607       23.233942
  H           25.849295       32.331950       23.695213
  H           26.748372       32.593093       28.365969
  H           26.153902       34.072769       29.150867
  H           27.515312       34.188167       28.023416
  C           20.667377       27.704969        4.387126
  C           19.187742       27.798073        4.680064
  O           18.557311       28.730635        3.799220
  C           18.585166       30.026021        4.211288
  O           19.081371       30.445961        5.237802
  O           17.954167       30.773582        3.272356
  C           17.904158       32.167378        3.578347
  H           20.836613       27.440733        3.333353
  H           21.142141       26.943526        5.020611
  H           21.165802       28.656915        4.559377
  H           18.711924       26.818564        4.502413
  H           19.001679       28.044575        5.735392
  H           17.349057       32.341742        4.512403
  H           17.377733       32.674634        2.766763
  H           18.912160       32.581648        3.646982
  C            7.515037       26.735892        7.798175
  C            6.738673       26.546447        6.515533
  O            5.692032       27.514377        6.412312
  C            4.523015       27.169467        7.014837
  O            4.296768       26.135752        7.611950
  O            3.644817       28.185672        6.828570
  C            2.361211       27.956732        7.410585
  H            7.907027       27.760994        7.864580
  H            8.358042       26.033634        7.849913
  H            6.882786       26.581004        8.670281
  H            7.406067       26.703787        5.651109
  H            6.354676       25.519980        6.426015
  H            1.883111       27.071690        6.964354
  H            1.734077       28.826613        7.202958
  H            2.445461       27.843447        8.493391
  C           28.575476        9.173119       20.461266
  C           27.097104        9.082057       20.761142
  O           26.405011       10.215728       20.233130
  C           26.368117       11.302981       21.048680
  O           26.854754       11.388975       22.158676
  O           25.684707       12.281315       20.404931
  C           25.563280       13.491884       21.152312
  H           28.744412        9.279980       19.380091
  H           29.099481        8.273431       20.811239
  H           29.023788       10.041699       20.939684
  H           26.672787        8.190529       20.268667
  H           26.912353        8.957028       21.837866
  H           25.012331       13.318150       22.088939
  H           24.999066       14.207627       20.550253
  H           26.548148       13.916065       21.358484
  C           10.507904       25.124068       16.146802
  C            9.926769       25.099563       17.541607
  O            8.500518       25.019901       17.491997
  C            7.857274       26.213261       17.388421
  O            8.376332       27.310826       17.341203
  O            6.524889       25.964363       17.351000
  C            5.718516       27.138050       17.246003
  H           10.173584       24.247370       15.573626
  H           11.605722       25.122215       16.182747
  H           10.182056       26.005198       15.597500
  H           10.278899       24.199926       18.074578
  H           10.266365       25.961643       18.133717
  H            5.869097       27.793650       18.116931
  H            4.670847       26.829689       17.225933
  H            5.937943       27.672834       16.319581
  C           14.462101       35.987743       22.490184
  C           15.498168       37.027320       22.130123
  O           16.644356       36.910606       22.976073
  C           16.566948       37.587716       24.152564
  O           15.635325       38.268596       24.533064
  O           17.721006       37.373117       24.831311
  C           17.781241       38.033326       26.095944
  H           14.895410       34.978299       22.443644
  H           13.607800       36.035175       21.801402
  H           14.095471       36.129013       23.505037
  H           15.845820       36.862146       21.096075
  H           15.075018       38.041927       22.154981
  H           17.714981       39.124491       25.969578
  H           18.743928       37.799175       26.555841
  H           16.988211       37.673631       26.754824
  C           36.171281        4.519110       26.025434
  C           35.664387        3.697011       27.187765
  O           34.855244        2.613851       26.724029
  C           33.542300        2.911870       26.534391
  O           33.012056        3.988317       26.725186
  O           32.921280        1.789070       26.095923
  C           31.523505        1.955474       25.856471
  H           36.718029        3.884742       25.313013
  H           36.843590        5.314173       26.375257
  H           35.350699        4.977504       25.476964
  H           36.517529        3.250857       27.726742
  H           35.129987        4.321002       27.918622
  H           31.000040        2.236298       26.782820
  H           31.121834        1.000006       25.511738
  H           31.353731        2.701637       25.077486
  C           20.746731       36.048740       33.995334
  C           20.228768       35.436416       35.276184
  O           20.937656       34.233638       35.582455
  C           20.445292       33.107448       35.001186
  O           19.478392       33.037317       34.268734
  O           21.224259       32.066898       35.387275
  C           20.817939       30.807858       34.850133
  H           21.829781       36.225979       34.062327
  H           20.246448       37.005080       33.791299
  H           20.585569       35.386947       33.146596
  H           20.400575       36.131412       36.115745
  H           19.142888       35.269222       35.231352
  H           19.801157       30.551497       35.183950
  H           21.503784       30.042993       35.221213
  H           20.873055       30.820061       33.759622
  C           12.713913       25.282398       23.639536
  C           12.137724       26.388286       24.493243
  O           13.175250       27.244345       24.976672
  C           13.766859       26.841216       26.132564
  O           13.493030       25.846496       26.774319
  O           14.720385       27.751550       26.449866
  C           15.427088       27.455030       27.654626
  H           13.307410       25.701043       22.814068
  H           11.913480       24.660573       23.216285
  H           13.379422       24.642922       24.216136
  H           11.464198       27.014815       23.883961
  H           11.526341       25.985614       25.313710
  H           14.741073       27.438290       28.514918
  H           16.164171       28.244188       27.819059
  H           15.955343       26.503510       27.565426
  C           16.050831       14.540916       32.943037
  C           16.299018       14.681760       34.427074
  O           17.256680       15.711667       34.682367
  C           18.557045       15.317194       34.637169
  O           18.962882       14.194687       34.410069
  O           19.328687       16.401738       34.895880
  C           20.730752       16.131756       34.884729
  H           15.733622       15.501210       32.511630
  H           15.269737       13.793552       32.748513
  H           16.954886       14.240183       32.417161
  H           15.365141       14.981055       34.932737
  H           16.600297       13.724646       34.876814
  H           20.992117       15.395442       35.659668
  H           21.257720       17.062890       35.104715
  H           21.046387       15.781826       33.899678
  C            6.010872       11.828677        9.351412
  C            5.628043       10.419601        8.961863
  O            4.822484       10.424378        7.781163
  C            3.488955       10.586721        7.990794
  O            2.938568       10.718929        9.065920
  O            2.874209       10.571042        6.782307
  C            1.456759       10.729008        6.850735
  H            6.520348       12.334689        8.518774
  H            6.681006       11.823167       10.221693
  H            5.133368       12.424343        9.595272
  H            6.536790        9.839764        8.726563
  H            5.132711        9.893907        9.790954
  H            1.000001        9.906636        7.421767
  H            1.062221       10.700091        5.832598
  H            1.198994       11.693686        7.292722
  C           20.185240       29.968458       24.070999
  C           19.240578       28.995041       24.737235
  O           18.808677       27.996960       23.809713
  C           17.723858       28.332304       23.061842
  O           17.104508       29.376181       23.116854
  O           17.448110       27.289475       22.240216
  C           16.319623       27.502477       21.391719
  H           21.038428       29.435988       23.626650
  H           20.566879       30.698930       24.797128
  H           19.693359       30.508400       23.264267
  H           19.764887       28.468227       25.552691
  H           18.390211       29.514498       25.202144
  H           15.407029       27.654414       21.987612
  H           16.183329       26.609735       20.777280
  H           16.492565       28.353290       20.729445
  C           34.646549        7.003567       15.657384
  C           33.365795        6.915096       16.454656
  O           33.055433        5.553747       16.760276
  C           32.349995        4.892178       15.804616
  O           31.967094        5.347994       14.745410
  O           32.142431        3.626322       16.244077
  C           31.403465        2.810628       15.334477
  H           35.471011        6.513931       16.195360
  H           34.919715        8.051761       15.475254
  H           34.550960        6.500004       14.697390
  H           33.491383        7.438400       17.417870
  H           32.534902        7.416201       15.937347
  H           30.400098        3.228698       15.162794
  H           31.290517        1.820264       15.781154
  H           31.942051        2.703374       14.390643
  C           22.703783       30.362743       31.726548
  C           21.557923       29.387254       31.865208
  O           21.690885       28.317000       30.927190
  C           21.163561       28.556441       29.697069
  O           20.600174       29.571617       29.338861
  O           21.373326       27.455129       28.934369
  C           20.863251       27.564587       27.605218
  H           23.667313       29.845457       31.840235
  H           22.637041       31.151898       32.487653
  H           22.708926       30.830466       30.743946
  H           21.575563       28.934654       32.871310
  H           20.586014       29.892911       31.771385
  H           19.772323       27.708596       27.616968
  H           21.080393       26.631703       27.080168
  H           21.353332       28.381943       27.072162
  C           35.781769       14.301340       31.550690
  C           36.927376       15.045895       30.904918
  O           37.164566       14.557165       29.582843
  C           37.992991       13.482019       29.503007
  O           38.537718       12.920464       30.432646
  O           38.110254       13.145024       28.194846
  C           38.962232       12.023708       27.959082
  H           34.877721       14.368803       30.928560
  H           35.557391       14.717149       32.542284
  H           36.010710       13.243467       31.663783
  H           36.668644       16.114214       30.809244
  H           37.834900       15.002522       31.524288
  H           39.987202       12.234488       28.299682
  H           38.989736       11.838334       26.882987
  H           38.568784       11.132380       28.452168
  C            6.755896       29.827342        5.858594
  C            7.448539       31.170389        5.875061
  O            7.673135       31.637959        4.543169
  C            8.822358       31.201386        3.962403
  O            9.653776       30.472761        4.466535
  O            8.882342       31.727953        2.714313
  C           10.049742       31.353328        1.982443
  H            5.817527       29.883666        5.288339
  H            6.526475       29.495473        6.880224
  H            7.372923       29.069441        5.379884
  H            6.802550       31.915023        6.370659
  H            8.380824       31.134706        6.457017
  H           10.959169       31.705434        2.492309
  H           10.001682       31.828268        0.999986
  H           10.082935       30.271121        1.840575
  C           34.349738        8.530663       10.052391
  C           35.728193        9.144692        9.970967
  O           36.571922        8.376731        9.109946
  C           37.215139        7.337662        9.705941
  O           37.140303        7.018492       10.875911
  O           37.964156        6.716852        8.761395
  C           38.704212        5.598240        9.251112
  H           33.913017        8.427366        9.048645
  H           33.682120        9.153157       10.663363
  H           34.385458        7.533539       10.486864
  H           35.659109       10.155007        9.532916
  H           36.171570        9.270923       10.969258
  H           39.416354        5.912371       10.029043
  H           39.270497        5.174828        8.418560
  H           38.029642        4.830048        9.634827
  C           10.650392       21.952067       37.868915
  C           11.007325       20.564984       37.386836
  O            9.829298       19.832614       37.042037
  C            9.232952       19.176628       38.072888
  O            9.608269       19.155978       39.228315
  O            8.140150       18.540680       37.583039
  C            7.411728       17.800997       38.563381
  H           10.053958       22.482266       37.112571
  H           11.556694       22.537449       38.074932
  H           10.050575       21.913822       38.776140
  H           11.618925       20.636268       36.471268
  H           11.619415       20.027809       38.125680
  H            8.039231       17.009540       39.000228
  H            6.559538       17.329321       38.069020
  H            7.033203       18.465716       39.342655
  C           35.614206       24.071672       10.730576
  C           35.054064       25.443416       10.433322
  O           36.075421       26.306145        9.927825
  C           36.805528       26.955092       10.873558
  O           36.664395       26.870818       12.077419
  O           37.723216       27.722289       10.234922
  C           38.565369       28.470236       11.112505
  H           36.092680       23.647692        9.836036
  H           34.818629       23.389640       11.059801
  H           36.375346       24.114536       11.507190
  H           34.282552       25.367072        9.648248
  H           34.556268       25.873834       11.314252
  H           37.971737       29.169613       11.720348
  H           39.260942       29.051056       10.502647
  H           39.144298       27.800708       11.752016
  C           27.299407       14.027236       16.027221
  C           27.516995       15.238160       15.149658
  O           28.872087       15.296863       14.698792
  C           29.736886       15.918959       15.543611
  O           29.462949       16.419786       16.616193
  O           30.967411       15.887085       14.974936
  C           31.984175       16.513750       15.757421
  H           27.586834       13.108532       15.495932
  H           26.244850       13.946081       16.323574
  H           27.908222       14.076400       16.927903
  H           26.883497       15.162718       14.249442
  H           27.217259       16.164269       15.661107
  H           31.758891       17.580432       15.907212
  H           32.928053       16.435705       15.213266
  H           32.097154       16.006037       16.717558
  C            7.956515       35.745469       30.251799
  C            9.132163       36.575931       29.791381
  O            8.837590       37.222395       28.551094
  C            9.093478       36.484185       27.438364
  O            9.543454       35.355932       27.408915
  O            8.760741       37.233208       26.358156
  C            8.982845       36.579227       25.108444
  H            7.051357       36.365200       30.326111
  H            8.157417       35.298190       31.234692
  H            7.736427       34.945840       29.547204
  H            9.334402       37.372857       30.527186
  H           10.049924       35.973502       29.728979
  H           10.048505       36.337018       24.979205
  H            8.687334       37.263334       24.309838
  H            8.371640       35.677469       25.033212
  C           13.095094       17.012514       28.981053
  C           13.737140       17.806334       27.866860
  O           12.744077       18.315200       26.973618
  C           12.373305       17.468103       25.976846
  O           12.805660       16.349292       25.782855
  O           11.432733       18.095194       25.228059
  C           10.950344       17.317040       24.132351
  H           12.351592       17.624062       29.512197
  H           13.850774       16.673464       29.702505
  H           12.570933       16.140518       28.594815
  H           14.264627       18.678663       28.288998
  H           14.496510       17.213412       27.336859
  H           11.767177       17.077363       23.434970
  H           10.205110       17.909589       23.596988
  H           10.471083       16.404009       24.491633
  C           31.222072       21.627411       13.441182
  C           31.137619       21.962461       14.912376
  O           30.662562       23.297601       15.098715
  C           31.620353       24.262181       15.070035
  O           32.812434       24.090532       14.909476
  O           31.010022       25.458398       15.257545
  C           31.903662       26.572041       15.254653
  H           30.248307       21.779692       12.953851
  H           31.527044       20.582056       13.297219
  H           31.936664       22.269028       12.929337
  H           30.411404       21.293123       15.404310
  H           32.100197       21.798193       15.417905
  H           32.636025       26.486280       16.071530
  H           31.316485       27.479142       15.414310
  H           32.410425       26.654966       14.290955
  C           10.804164        2.640591       17.760939
  C            9.900437        3.841075       17.921918
  O            9.153620        4.073699       16.725610
  C            9.780129        4.837309       15.791273
  O           10.887030        5.329362       15.885907
  O            8.946847        4.959108       14.728539
  C            9.478140        5.746432       13.662401
  H           10.221237        1.754318       17.471775
  H           11.332246        2.422694       18.699102
  H           11.543059        2.803259       16.978716
  H            9.167594        3.648971       18.724062
  H           10.466839        4.732320       18.228466
  H            9.675463        6.775518       13.998623
  H            8.733824        5.783331       12.863819
  H           10.387396        5.290699       13.264959
  C           13.121587       10.173222       32.478336
  C           13.788301        8.867738       32.845764
  O           12.834226        7.947684       33.380779
  C           12.611299        8.056796       34.717565
  O           13.142727        8.843673       35.475660
  O           11.688646        7.124628       35.061619
  C           11.357462        7.121659       36.450543
  H           12.292835        9.999683       31.776941
  H           13.840527       10.858711       32.009582
  H           12.698947       10.662178       33.353892
  H           14.211327        8.399471       31.940681
  H           14.631295        9.026602       33.533676
  H           12.243853        6.895301       37.062158
  H           10.614392        6.339398       36.620879
  H           10.922527        8.079494       36.743432
  C           30.192697       39.186427       15.384769
  C           30.748062       37.861682       15.854258
  O           32.028473       37.615950       15.268457
  C           32.001393       37.020475       14.046461
  O           31.010039       36.684033       13.429756
  O           33.283274       36.861948       13.633846
  C           33.407931       36.239462       12.354872
  H           30.898393       40.000576       15.603987
  H           29.238032       39.406014       15.881655
  H           30.030247       39.188679       14.308709
  H           30.896248       37.887855       16.947307
  H           30.045435       37.038993       15.657791
  H           32.978574       35.226351       12.370920
  H           34.471338       36.157573       12.119165
  H           32.930097       36.847479       11.583905
  C           28.365356        6.091715       23.549263
  C           27.289934        5.439970       22.711113
  O           27.713627        4.151245       22.260920
  C           28.429970        4.148342       21.105306
  O           28.727662        5.119569       20.438674
  O           28.753526        2.862590       20.821136
  C           29.510672        2.706991       19.620587
  H           28.644612        5.442922       24.391868
  H           28.017908        7.054548       23.947677
  H           29.269512        6.264456       22.968779
  H           26.385848        5.283290       23.323878
  H           26.987033        6.084878       21.873590
  H           28.939338        3.063843       18.750395
  H           29.715263        1.642818       19.483557
  H           30.464021        3.233940       19.697078
  C           16.464618       28.544922       31.135143
  C           17.702553       28.587926       30.269425
  O           18.099770       27.267754       29.892114
  C           18.905688       26.629187       30.781681
  O           19.309980       27.074299       31.837485
  O           19.185833       25.400958       30.280110
  C           20.034490       24.613226       31.115610
  H           15.652051       28.011764       30.620965
  H           16.121803       29.560673       31.374366
  H           16.651477       28.015241       32.067249
  H           17.484129       29.135013       29.336480
  H           18.519499       29.133785       30.763121
  H           21.010519       25.102871       31.252048
  H           20.198783       23.652197       30.623135
  H           19.558552       24.428651       32.080915
  C           22.251702       35.537896       16.248609
  C           21.837055       36.928263       16.671394
  O           22.841412       37.882505       16.319697
  C           23.833070       38.043591       17.235811
  O           23.932710       37.466003       18.300125
  O           24.696389       38.971407       16.753693
  C           25.796214       39.246470       17.621751
  H           22.472473       35.511348       15.171829
  H           21.454692       34.812686       16.461555
  H           23.154973       35.219715       16.765487
  H           20.917375       37.220078       16.136200
  H           21.595650       36.967139       17.743454
  H           25.442813       39.647830       18.583529
  H           26.424568       40.002054       17.144925
  H           26.396440       38.347632       17.777377
  C            5.121149       21.509762       22.058277
  C            5.714721       21.010194       23.355159
  O            5.728221       19.581250       23.385795
  C            4.585410       19.001085       23.839658
  O            3.584038       19.577319       24.215833
  O            4.759996       17.656908       23.803466
  C            3.630097       16.912961       24.260271
  H            5.666148       21.094015       21.198608
  H            5.167100       22.605976       22.006275
  H            4.082389       21.202529       21.953945
  H            6.764090       21.341636       23.434968
  H            5.191083       21.431479       24.225460
  H            3.405976       17.150457       25.311158
  H            3.873464       15.850239       24.193219
  H            2.761237       17.107865       23.628215
  C           17.741451       14.893820       18.343522
  C           18.521357       13.939072       19.217594
  O           17.726705       12.799327       19.553018
  C           16.935908       12.947217       20.649088
  O           16.853386       13.935531       21.351033
  O           16.252895       11.789443       20.826995
  C           15.377704       11.800043       21.955148
  H           17.373745       14.380676       17.443313
  H           18.370320       15.739334       18.033473
  H           16.869481       15.284903       18.864120
  H           19.400485       13.564723       18.665872
  H           18.911135       14.442195       20.114278
  H           15.944052       11.951422       22.886456
  H           14.881763       10.828347       22.009448
  H           14.613017       12.571077       21.840429
  C           16.105467       34.582332       25.061588
  C           17.593907       34.610249       24.801650
  O           18.143852       33.293234       24.879329
  C           18.503683       32.888735       26.126527
  O           18.405469       33.534859       27.150821
  O           18.999243       31.630469       26.027597
  C           19.424188       31.075122       27.272511
  H           15.604459       33.895341       24.364498
  H           15.670691       35.583778       24.940862
  H           15.885699       34.229615       26.067368
  H           17.785152       34.976767       23.778669
  H           18.107383       35.306882       25.479989
  H           20.235940       31.675440       27.710320
  H           19.805315       30.069132       27.083236
  H           18.584097       31.000312       27.966090
  C           19.948398       18.433157       19.619679
  C           20.283786       19.427893       18.532566
  O           20.127482       20.766518       19.008648
  C           18.871211       21.275627       18.902855
  O           17.898872       20.707902       18.446188
  O           18.892749       22.538754       19.395445
  C           17.629811       23.202912       19.343645
  H           20.561771       18.616480       20.513584
  H           20.127802       17.405611       19.275494
  H           18.907679       18.517661       19.926375
  H           21.341319       19.314359       18.239080
  H           19.690482       19.246412       17.624736
  H           17.283066       23.300509       18.303817
  H           17.755959       24.205402       19.758617
  H           16.891349       22.670839       19.946946
  C           24.098612       37.973350       13.472224
  C           24.324161       36.507204       13.183529
  O           24.535948       35.781472       14.396566
  C           25.821368       35.755647       14.838864
  O           26.779124       36.277432       14.303378
  O           25.850087       35.037041       15.988377
  C           27.149837       34.922674       16.568351
  H           23.260265       38.104835       14.171357
  H           23.873851       38.521783       12.547452
  H           24.973039       38.424464       13.937170
  H           23.424771       36.079942       12.708194
  H           25.148940       36.360034       12.471364
  H           27.838359       34.405624       15.883080
  H           27.063556       34.328414       17.480771
  H           27.539441       35.907499       16.834301
  C           21.797061       22.505988       10.547859
  C           20.671549       21.863090       11.324842
  O           21.041600       20.551481       11.755824
  C           20.809228       19.559265       10.855763
  O           20.322708       19.687911        9.749848
  O           21.213934       18.391042       11.412601
  C           21.024118       17.251986       10.572766
  H           22.718764       22.524451       11.147044
  H           21.538514       23.536634       10.269607
  H           22.020118       21.948999        9.639945
  H           20.464866       22.452148       12.234619
  H           19.737336       21.853012       10.744976
  H           19.957430       17.111566       10.341555
  H           21.377210       16.369974       11.111728
  H           21.606878       17.350747        9.654595
  C           21.153171       21.490201       21.735652
  C           19.928769       21.755869       22.580673
  O           20.057533       21.137580       23.862912
  C           19.654356       19.840506       23.923313
  O           19.201768       19.182386       23.007704
  O           19.842454       19.406467       25.194072
  C           19.454769       18.048742       25.406399
  H           22.061655       21.827044       22.255356
  H           21.083533       22.016062       20.773820
  H           21.275815       20.426812       21.539531
  H           19.827954       22.840321       22.757306
  H           19.009417       21.440243       22.066597
  H           18.380810       17.914349       25.207524
  H           19.643218       17.801468       26.453511
  H           20.048414       17.377950       24.781880
  C           24.756001       21.814425       13.038232
  C           25.082966       21.002662       11.806188
  O           25.746927       19.788574       12.164165
  C           27.096677       19.884281       12.296896
  O           27.768212       20.884085       12.136484
  O           27.567776       18.659386       12.637922
  C           28.984566       18.609896       12.808383
  H           24.156865       21.221147       13.743893
  H           24.190736       22.717335       12.770408
  H           25.659297       22.116254       13.564782
  H           24.149717       20.716965       11.291578
  H           25.667526       21.588596       11.082261
  H           29.499276       18.870582       11.871304
  H           29.258815       17.587366       13.077304
  H           29.297321       19.274249       13.616603
  C           37.462793        6.790567       28.746899
  C           38.385074        7.201977       29.871150
  O           37.637966        7.739112       30.964911
  C           37.363760        9.068191       30.881477
  O           37.694798        9.818145       29.984659
  O           36.654663        9.415377       31.983858
  C           36.297547       10.797018       32.032194
  H           36.708304        6.076862       29.107830
  H           38.029077        6.320430       27.931551
  H           36.923426        7.645673       28.344186
  H           38.921104        6.316879       30.254131
  H           39.156955        7.902839       29.521732
  H           37.196442       11.431554       32.050973
  H           35.735884       10.970670       32.952780
  H           35.659886       11.058462       31.185178
  C           16.781138       37.845919       12.140109
  C           17.198874       37.652147       10.700751
  O           16.481154       36.566675       10.109457
  C           17.032757       35.338032       10.295930
  O           18.057464       35.091557       10.900517
  O           16.236743       34.428436        9.681441
  C           16.700505       33.082629        9.793373
  H           15.694269       37.996730       12.209899
  H           17.285411       38.718264       12.577398
  H           17.019340       36.971586       12.742688
  H           16.950434       38.555169       10.117461
  H           18.286621       37.517496       10.612575
  H           17.689230       32.970671        9.323385
  H           15.995332       32.435474        9.267044
  H           16.735286       32.774505       10.840393
  C            7.755215       35.807126       12.697781
  C            6.349860       35.314831       12.955506
  O            6.058841       35.331124       14.354807
  C            6.432240       34.215761       15.036818
  O            6.971984       33.232058       14.570659
  O            6.091117       34.391236       16.337373
  C            6.423654       33.286150       17.178208
  H            7.898173       36.809312       13.126834
  H            7.959132       35.854508       11.619508
  H            8.494056       35.155712       13.160462
  H            5.625102       35.990637       12.470314
  H            6.185667       34.320035       12.516733
  H            5.892168       32.377817       16.856566
  H            6.107436       33.526346       18.195759
  H            7.502723       33.118860       17.183321
  C           32.547870       36.320989        2.452021
  C           33.583965       35.471959        1.752410
  O           32.963556       34.379477        1.070812
  C           32.756330       33.268293        1.826409
  O           33.050044       33.126768        2.996880
  O           32.164083       32.336228        1.039581
  C           31.888510       31.104400        1.707008
  H           31.789081       36.671238        1.737553
  H           33.015845       37.195492        2.923979
  H           32.023645       35.754124        3.218931
  H           34.101545       36.074251        0.986411
  H           34.360338       35.128237        2.451123
  H           32.819077       30.637499        2.063447
  H           31.417910       30.427642        0.990325
  H           31.196060       31.263705        2.536185
  C           33.660717       29.745643       26.283363
  C           34.441066       30.840811       26.972900
  O           35.036479       30.353540       28.177495
  C           34.241943       30.408584       29.279441
  O           33.103212       30.829643       29.327411
  O           34.948056       29.912004       30.325105
  C           34.232124       29.912200       31.560517
  H           34.304432       28.875376       26.090574
  H           33.254575       30.100730       25.326565
  H           32.834898       29.398590       26.901325
  H           35.266044       31.175433       26.321103
  H           33.814879       31.725759       27.156903
  H           33.959099       30.937433       31.852672
  H           34.885502       29.498297       32.331802
  H           33.342554       29.282990       31.488680
  C           13.745208       39.319162        8.514520
  C           13.565420       37.964415        9.159607
  O           14.713304       37.142911        8.934903
  C           14.704359       36.441732        7.770056
  O           13.826399       36.449438        6.930160
  O           15.852630       35.723098        7.709722
  C           15.977883       34.928244        6.530180
  H           14.663169       39.801954        8.879430
  H           12.891638       39.973098        8.738762
  H           13.839927       39.233679        7.433769
  H           13.466554       38.083760       10.252028
  H           12.641519       37.475900        8.817760
  H           15.166073       34.187648        6.471161
  H           16.928171       34.392101        6.581202
  H           15.986727       35.560905        5.640202
  C           19.584002       35.154204        7.283366
  C           20.071202       33.995966        6.443770
  O           19.011620       33.067418        6.202763
  C           18.838635       32.123616        7.166046
  O           19.492720       32.002248        8.182777
  O           17.803829       31.332124        6.790125
  C           17.509336       30.284679        7.714751
  H           18.722349       35.642134        6.805475
  H           20.379762       35.899428        7.417178
  H           19.254974       34.820479        8.265542
  H           20.402774       34.365518        5.458432
  H           20.944583       33.508096        6.900157
  H           18.370190       29.607977        7.824316
  H           16.668956       29.709383        7.319915
  H           17.219247       30.697808        8.683035
  C            2.115000       35.378733       18.542546
  C            2.117476       35.788461       19.997165
  O            2.807180       37.028350       20.170321
  C            4.152792       36.924248       20.334915
  O            4.800013       35.896093       20.352281
  O            4.650790       38.176848       20.481856
  C            6.065681       38.220030       20.668987
  H            1.679144       36.172162       17.918527
  H            1.532247       34.458861       18.398549
  H            3.125871       35.207573       18.177658
  H            1.080825       35.948747       20.339312
  H            2.534650       34.997347       20.636857
  H            6.354473       37.681400       21.584124
  H            6.362072       39.265624       20.778471
  H            6.580587       37.805274       19.799936
  C           17.223144        9.437607       27.113896
  C           15.960463        9.779319       26.357147
  O           15.736317       11.190961       26.362168
  C           15.059489       11.665850       27.441512
  O           14.636215       11.010618       28.373076
  O           14.933957       13.007974       27.294736
  C           14.233506       13.645126       28.363476
  H           18.082408        9.982923       26.697727
  H           17.430552        8.360400       27.058151
  H           17.145480        9.720349       28.161906
  H           16.066927        9.476242       25.301585
  H           15.094360        9.227827       26.750620
  H           13.204724       13.261761       28.438565
  H           14.185980       14.714963       28.148327
  H           14.765258       13.506884       29.307154
  C           37.016059       17.038914       33.825680
  C           38.508113       16.870849       33.996945
  O           38.977340       15.745249       33.251391
  C           38.902807       14.551174       33.897324
  O           38.488183       14.365240       35.024185
  O           39.379375       13.596539       33.060572
  C           39.364241       12.280362       33.613969
  H           36.756835       17.125341       32.760676
  H           36.663686       17.939252       34.346953
  H           36.473496       16.179839       34.215443
  H           39.029593       17.757951       33.598813
  H           38.785422       16.800616       35.058673
  H           40.000077       12.227140       34.510563
  H           39.766956       11.593023       32.866650
  H           38.342577       11.974288       33.848323
  C           11.424611        9.358062       18.800034
  C           12.599923       10.233783       19.168210
  O           13.575064        9.487262       19.899514
  C           13.370077        9.426364       21.242224
  O           12.457646        9.942197       21.856784
  O           14.371120        8.687665       21.781518
  C           14.285171        8.541973       23.199328
  H           11.761636        8.476052       18.236675
  H           10.703612        9.913165       18.184793
  H           10.911257        8.990977       19.686609
  H           13.095527       10.594691       18.250864
  H           12.276929       11.129994       19.717373
  H           14.344714        9.522048       23.696227
  H           15.132446        7.937446       23.530648
  H           13.364035        8.025395       23.476916
  C           16.454066       22.291434        1.754370
  C           17.132779       22.870111        2.974321
  O           16.306156       23.861465        3.588253
  C           16.436690       25.117342        3.083936
  O           17.178860       25.460227        2.185096
  O           15.591168       25.928347        3.766550
  C           15.625374       27.291087        3.341613
  H           15.466877       21.885269        2.017788
  H           17.059883       21.486036        1.317541
  H           16.291226       23.052302        0.993540
  H           17.289396       22.075609        3.723746
  H           18.129623       23.264924        2.730344
  H           16.627279       27.721005        3.491136
  H           14.915773       27.854904        3.951266
  H           15.323234       27.374630        2.295606
  C           31.882428        2.634924        6.542302
  C           30.860054        2.581372        5.430689
  O           30.006383        3.726901        5.475512
  C           28.926730        3.612670        6.293987
  O           28.631066        2.645449        6.967311
  O           28.229067        4.773299        6.224645
  C           27.056061        4.794213        7.038536
  H           32.459811        3.569233        6.491354
  H           32.578252        1.787943        6.471923
  H           31.405729        2.609626        7.520268
  H           31.372560        2.602583        4.453813
  H           30.285848        1.644000        5.457544
  H           26.350468        4.009842        6.725644
  H           26.570231        5.763942        6.909327
  H           27.317923        4.677859        8.092239
  C           21.538536       33.742440       29.772096
  C           22.887367       33.800174       29.093036
  O           23.618870       32.593725       29.321913
  C           24.346455       32.566820       30.470171
  O           24.429854       33.457523       31.292359
  O           24.971446       31.365360       30.537090
  C           25.781913       31.197394       31.700589
  H           20.974641       32.860196       29.436583
  H           20.950295       34.642018       29.545751
  H           21.642219       33.660613       30.852306
  H           22.749993       33.888667       28.001845
  H           23.456885       34.687458       29.405247
  H           26.586742       31.947442       31.726627
  H           26.238325       30.206013       31.656390
  H           25.172307       31.255907       32.604667
  C           21.167532        9.135224       18.418569
  C           21.643392        9.504966       17.032694
  O           22.862780        8.827472       16.721093
  C           23.995846        9.455781       17.133390
  O           24.058861       10.516512       17.722609
  O           25.052263        8.689154       16.766151
  C           26.319725        9.233556       17.134887
  H           21.057169        8.045192       18.511040
  H           20.199088        9.605817       18.635728
  H           21.881092        9.447356       19.178639
  H           20.898212        9.181753       16.285941
  H           21.741859       10.594203       16.918826
  H           26.482091       10.207304       16.648623
  H           27.096928        8.546036       16.793756
  H           26.395722        9.328197       18.220091
  C           24.555594       27.790172       29.502503
  C           24.489216       28.404468       28.123360
  O           25.789462       28.457382       27.532122
  C           26.522269       29.559699       27.842754
  O           26.174081       30.480096       28.555450
  O           27.717260       29.454986       27.210590
  C           28.596025       30.555558       27.445770
  H           25.018983       26.794009       29.459724
  H           23.549949       27.691367       29.933101
  H           25.161624       28.393209       30.175832
  H           23.864679       27.775248       27.466523
  H           24.011748       29.394703       28.146991
  H           28.152614       31.493665       27.079244
  H           29.521438       30.375186       26.894247
  H           28.837662       30.633597       28.507807
  C            3.850263       21.647606       15.880720
  C            5.293635       21.449813       16.282412
  O            5.928664       22.708759       16.516492
  C            6.455794       23.305120       15.414182
  O            6.438384       22.869118       14.280207
  O            7.012689       24.478461       15.803720
  C            7.613354       25.216784       14.739351
  H            3.314399       22.233263       16.641479
  H            3.343735       20.680321       15.761191
  H            3.771493       22.196488       14.944331
  H            5.341275       20.886593       17.229994
  H            5.839077       20.850230       15.539382
  H            8.432292       24.642654       14.280314
  H            8.030785       26.135816       15.156761
  H            6.866176       25.487026       13.990289
  C            2.745313       30.757675        2.603161
  C            3.943531       30.351386        3.429602
  O            4.475909       31.476423        4.132357
  C            5.375579       32.221091        3.436179
  O            5.758831       32.014655        2.301806
  O            5.777509       33.240000        4.235477
  C            6.734857       34.109130        3.629755
  H            1.983031       31.234093        3.236290
  H            2.297208       29.883441        2.111820
  H            3.019161       31.481143        1.837719
  H            3.636340       29.614693        4.191387
  H            4.708103       29.857057        2.813024
  H            7.652912       33.559358        3.372996
  H            6.991778       34.887395        4.351831
  H            6.312436       34.587364        2.743611
  C           28.132745       32.090561        6.628792
  C           29.009081       30.859498        6.610911
  O           28.766278       30.085095        5.434328
  C           27.744109       29.193548        5.528756
  O           27.042812       29.000565        6.502018
  O           27.645021       28.548757        4.340049
  C           26.605389       27.571006        4.295682
  H           28.284339       32.685861        5.716906
  H           28.362091       32.718637        7.500240
  H           27.077871       31.825239        6.662613
  H           30.070391       31.159864        6.582614
  H           28.881770       30.262195        7.525308
  H           26.780207       26.781967        5.042580
  H           26.612436       27.112461        3.304326
  H           25.631295       28.039201        4.451677
  C           34.965002       13.613136       20.657078
  C           34.120437       12.482099       20.117388
  O           32.824219       12.954787       19.744047
  C           31.907322       12.983685       20.747574
  O           32.089025       12.646502       21.900654
  O           30.744154       13.453851       20.233198
  C           29.681068       13.535074       21.182961
  H           35.030351       14.430130       19.924173
  H           35.981231       13.264760       20.886015
  H           34.532002       14.033394       21.562724
  H           34.586844       12.073469       19.204762
  H           34.059970       11.648996       20.832498
  H           29.441293       12.539454       21.585763
  H           28.796482       13.919871       20.670576
  H           29.938946       14.224393       21.989644
  C           28.304242       10.586066       34.997226
  C           28.920685       11.902602       35.410178
  O           30.164261       11.688261       36.081428
  C           30.069105       11.465177       37.419255
  O           29.046710       11.438565       38.075227
  O           31.323738       11.280304       37.899170
  C           31.376741       11.037318       39.305210
  H           29.003847       10.010576       34.374117
  H           27.380228       10.751180       34.426756
  H           28.069891        9.969720       35.862961
  H           29.141286       12.506529       34.513513
  H           28.225869       12.498047       36.019912
  H           30.973224       11.894866       39.864482
  H           32.423543       10.905434       39.587898
  H           30.834136       10.123919       39.557562
  C           32.440187       28.638709       38.307056
  C           33.321575       29.328278       37.291453
  O           34.282771       28.415814       36.756184
  C           35.430866       28.296822       37.474737
  O           35.704045       28.887160       38.500980
  O           36.226485       27.400943       36.839922
  C           37.479596       27.177735       37.486986
  H           31.954850       27.757929       37.862562
  H           31.661413       29.321219       38.673375
  H           33.018565       28.286075       39.158777
  H           32.707511       29.679077       36.444538
  H           33.800776       30.222180       37.716195
  H           38.065660       28.108005       37.533102
  H           38.040372       26.447921       36.898768
  H           37.327186       26.769202       38.488121
  C           10.477208        2.999555       29.807165
  C           11.966865        2.796497       29.653912
  O           12.405752        3.236916       28.366896
  C           12.311911        2.311480       27.375249
  O           11.903478        1.172682       27.487600
  O           12.760914        2.883146       26.230612
  C           12.723075        2.016799       25.096235
  H           10.210427        4.051253       29.629235
  H           10.148432        2.720020       30.817248
  H            9.920216        2.404684       29.085925
  H           12.503293        3.406440       30.400648
  H           12.252036        1.752097       29.846283
  H           13.365574        1.137696       25.255526
  H           13.104645        2.568807       24.234381
  H           11.697332        1.709692       24.881909
  C           24.000104       30.512162        9.868051
  C           24.654259       30.493878       11.230236
  O           24.809864       29.151755       11.696597
  C           23.735239       28.638575       12.352667
  O           22.685720       29.209075       12.574794
  O           24.041991       27.370736       12.722922
  C           22.996503       26.704584       13.431438
  H           24.574394       29.902675        9.155579
  H           23.936451       31.538098        9.480877
  H           22.995909       30.094432        9.905389
  H           25.666343       30.927918       11.161725
  H           24.100788       31.113839       11.950249
  H           22.761239       27.233616       14.367267
  H           23.343422       25.699940       13.683308
  H           22.105834       26.614711       12.806114
  C           28.163315       11.187489       29.475744
  C           28.539841       11.688247       28.100510
  O           29.457453       12.780019       28.195489
  C           28.886339       14.005415       28.339819
  O           27.696235       14.245449       28.388171
  O           29.883343       14.921202       28.416741
  C           29.425668       16.265301       28.567509
  H           29.061960       10.909433       30.044974
  H           27.507583       10.309227       29.403832
  H           27.649328       11.955877       30.049936
  H           29.052806       10.887158       27.541473
  H           27.649863       11.954013       27.511945
  H           28.816014       16.568778       27.703089
  H           30.299896       16.918292       28.616781
  H           28.860095       16.376393       29.494972
  C            8.312147        2.552897       11.948619
  C            7.069068        3.346820       12.277618
  O            7.002868        3.621861       13.678678
  C            6.421379        2.651100       14.432397
  O            5.961408        1.601916       14.027503
  O            6.440060        3.062164       15.724402
  C            5.852693        2.133999       16.636712
  H            9.211224        3.080640       12.297974
  H            8.396945        2.394330       10.865030
  H            8.303386        1.581876       12.439884
  H            7.103915        4.321527       11.761739
  H            6.161711        2.839988       11.918557
  H            4.791104        1.970706       16.397204
  H            5.916294        2.558481       17.641137
  H            6.398931        1.188518       16.627153
  C           17.850062       13.866494       11.378696
  C           18.170208       13.191737       12.692473
  O           19.221955       13.882375       13.370593
  C           20.480949       13.505175       13.022375
  O           20.779826       12.651615       12.210952
  O           21.352316       14.249855       13.746785
  C           22.724577       13.955174       13.484364
  H           17.598479       14.924718       11.539216
  H           17.000700       13.374597       10.885621
  H           18.702751       13.842201       10.702951
  H           17.286876       13.226976       13.352686
  H           18.406958       12.127369       12.550452
  H           22.953813       12.908919       13.736952
  H           23.337685       14.602548       14.115320
  H           22.968403       14.160968       12.440048
  C            1.696924       18.200315       18.676198
  C            2.001293       19.308548       17.694883
  O            2.509097       18.772586       16.471004
  C            3.851911       18.561030       16.444671
  O            4.635622       18.787283       17.345175
  O            4.168044       18.053623       15.227626
  C            5.559595       17.783839       15.055574
  H            0.999127       17.474328       18.234698
  H            1.248410       18.605296       19.593436
  H            2.597261       17.651504       18.945454
  H            1.072316       19.849348       17.446014
  H            2.684833       20.052797       18.128435
  H            6.150288       18.707549       15.149605
  H            5.706229       17.383888       14.049772
  H            5.897551       17.036217       15.776162
  C           18.933077       19.078824        6.173182
  C           20.071189       18.088117        6.089509
  O           19.570869       16.755928        5.955520
  C           19.283509       16.125053        7.125144
  O           19.416984       16.582074        8.243006
  O           18.822410       14.885628        6.825454
  C           18.481728       14.101516        7.969091
  H           18.272608       18.983060        5.299391
  H           19.315273       20.107813        6.213273
  H           18.319799       18.903837        7.054981
  H           20.677083       18.294013        5.190677
  H           20.751103       18.183556        6.948408
  H           19.363540       13.939025        8.607061
  H           18.126630       13.129092        7.620672
  H           17.679432       14.578200        8.536094
  C           33.445994       21.368763        7.651024
  C           33.499234       22.822689        7.242287
  O           32.391861       23.541172        7.790473
  C           31.255548       23.510698        7.044508
  O           31.106846       22.945422        5.979308
  O           30.310517       24.230075        7.698734
  C           29.054297       24.287748        7.022431
  H           33.408845       21.276490        8.746015
  H           34.328788       20.828676        7.282947
  H           32.555128       20.880214        7.261180
  H           34.414185       23.288499        7.646374
  H           33.554589       22.931206        6.149465
  H           29.162286       24.771918        6.040129
  H           28.370259       24.887461        7.627026
  H           28.630767       23.287168        6.913516
  C           17.288557       23.168679       34.359680
  C           16.689952       24.036510       35.442427
  O           15.409947       23.538113       35.837632
  C           14.361945       23.977298       35.091034
  O           14.418328       24.739842       34.146763
  O           13.233127       23.415504       35.589791
  C           12.042583       23.794659       34.898671
  H           17.349393       22.122585       34.692675
  H           18.298331       23.513352       34.098804
  H           16.676774       23.179963       33.459739
  H           17.333941       24.009631       36.337947
  H           16.638632       25.089778       35.130832
  H           11.882406       24.881346       34.965405
  H           11.198017       23.293510       35.376854
  H           12.086459       23.475764       33.855225
  C           32.908831       15.111453       35.577172
  C           32.757567       14.557206       34.179413
  O           32.815114       15.607633       33.211792
  C           31.630152       16.222125       32.953207
  O           30.555981       15.958496       33.456154
  O           31.856088       17.185249       32.025876
  C           30.687695       17.916206       31.652567
  H           33.840402       15.688825       35.665012
  H           32.927520       14.300138       36.317387
  H           32.092507       15.786790       35.825839
  H           33.594696       13.873120       33.958864
  H           31.838379       13.961902       34.080387
  H           29.937008       17.248449       31.203601
  H           30.976092       18.659295       30.905744
  H           30.270168       18.439196       32.515442
  C           26.238739       14.169514       34.006739
  C           25.300977       15.269126       34.448619
  O           24.854763       15.043135       35.787581
  C           23.760825       14.244500       35.906245
  O           23.144416       13.725608       34.996799
  O           23.472060       14.130072       37.226139
  C           22.332872       13.314580       37.501864
  H           27.084862       14.080408       34.703185
  H           26.631474       14.373847       33.001499
  H           25.737328       13.203771       33.991664
  H           25.834955       16.234666       34.448224
  H           24.457920       15.382533       33.751845
  H           21.428570       13.739312       37.040517
  H           22.186604       13.290067       38.584040
  H           22.498782       12.293048       37.153515
  C           19.366967       39.271132       21.136112
  C           18.262932       38.391999       21.676511
  O           18.675381       37.750966       22.885628
  C           19.345868       36.579756       22.720362
  O           19.612111       36.043972       21.662841
  O           19.664753       36.107237       23.950662
  C           20.375047       34.868750       23.929927
  H           19.682435       40.003952       21.892653
  H           19.030378       39.812654       20.241706
  H           20.246753       38.686326       20.874808
  H           17.384399       39.010981       21.926394
  H           17.924057       37.664568       20.924774
  H           19.768175       34.079117       23.461754
  H           20.579670       34.577210       24.962513
  H           21.327894       34.981477       23.408605
  C           34.776208       14.728904       24.240498
  C           36.162379       14.987859       23.697109
  O           37.157039       14.591020       24.643772
  C           37.486969       15.533642       25.566382
  O           37.025514       16.654577       25.649223
  O           38.431207       15.002967       26.382103
  C           38.878387       15.891601       27.406388
  H           34.663458       13.672480       24.523617
  H           34.012245       14.974849       23.490584
  H           34.584764       15.319027       25.134592
  H           36.324547       14.381401       22.789744
  H           36.285208       16.037332       23.392775
  H           39.340888       16.789290       26.969069
  H           39.633053       15.372104       28.001117
  H           38.051104       16.166708       28.063897
  C           35.663618       33.973984       36.064747
  C           35.447798       34.562473       34.689646
  O           35.386931       33.529728       33.703374
  C           36.587940       33.137124       33.201341
  O           37.677199       33.580359       33.506886
  O           36.357084       32.160108       32.289888
  C           37.540077       31.651288       31.673098
  H           34.878801       33.240245       36.298390
  H           35.648241       34.760580       36.831252
  H           36.615703       33.450509       36.126460
  H           34.479482       35.090559       34.659798
  H           36.215440       35.311806       34.448138
  H           38.065567       32.446261       31.122753
  H           37.245709       30.877709       30.960340
  H           38.198056       31.200202       32.418741
  C           34.461129       23.206068        3.510564
  C           35.555006       22.469256        4.248359
  O           36.435828       23.390723        4.894929
  C           37.453461       23.857368        4.123393
  O           37.674916       23.562227        2.965745
  O           38.186917       24.712986        4.877421
  C           39.301800       25.281791        4.190182
  H           33.915341       23.872341        4.194008
  H           33.747947       22.499212        3.065337
  H           34.869104       23.830089        2.717813
  H           35.111132       21.842017        5.040159
  H           36.099182       21.784993        3.581460
  H           40.004523       24.497365        3.871033
  H           39.822662       25.948391        4.881158
  H           38.965479       25.868754        3.332999
  C           36.804582       36.581027       27.223646
  C           36.460733       35.178236       26.778958
  O           35.190833       34.781078       27.301087
  C           35.221638       34.236131       28.546352
  O           36.209060       34.058023       29.231607
  O           33.949340       33.919310       28.892015
  C           33.830139       33.328970       30.186654
  H           36.011550       37.284217       26.931202
  H           37.750270       36.911141       26.772869
  H           36.898628       36.641397       28.306148
  H           36.378056       35.147374       25.679135
  H           37.253271       34.465409       27.048888
  H           34.390849       32.383420       30.237047
  H           32.774640       33.111700       30.365020
  H           34.174229       34.021667       30.957480
  C           15.549920       35.271668       28.477040
  C           15.885042       33.859025       28.896486
  O           14.720819       33.188592       29.384448
  C           14.455477       33.376009       30.704701
  O           15.107975       34.041464       31.484262
  O           13.329528       32.682282       31.004003
  C           12.930824       32.785939       32.371150
  H           14.742934       35.271689       27.730265
  H           16.429041       35.767724       28.043940
  H           15.200846       35.863116       29.321218
  H           16.240754       33.286959       28.022639
  H           16.703322       33.841203       29.630789
  H           13.708900       32.381281       33.035868
  H           12.022769       32.194026       32.505964
  H           12.706998       33.823390       32.628050
  C           28.641746       37.387668        2.743728
  C           28.614563       36.027056        2.086614
  O           27.342067       35.403105        2.272193
  C           27.204850       34.700523        3.428113
  O           28.049375       34.557345        4.289842
  O           25.953224       34.179443        3.450652
  C           25.667938       33.406344        4.616727
  H           27.825332       38.017395        2.361874
  H           29.596561       37.894583        2.549135
  H           28.505353       37.310108        3.820613
  H           28.760902       36.137432        0.998588
  H           29.436517       35.390897        2.445491
  H           26.345673       32.542200        4.686944
  H           24.644414       33.033717        4.535193
  H           25.738915       34.024650        5.513978
  C            5.900553       25.252101       11.135435
  C            5.979991       24.070136       12.073758
  O            7.318864       23.884779       12.538584
  C            8.111988       23.129324       11.733077
  O            7.787517       22.608625       10.684320
  O            9.336737       23.053551       12.310008
  C           10.280195       22.279900       11.568286
  H            6.286368       26.158927       11.622995
  H            4.862383       25.434295       10.826391
  H            6.502909       25.090823       10.243551
  H            5.356017       24.260202       12.963663
  H            5.581063       23.158316       11.606275
  H            9.938588       21.238474       11.469608
  H           11.225251       22.280397       12.115980
  H           10.451639       22.723182       10.585175
  C           22.689199       15.864383       31.363579
  C           21.276402       15.689171       30.856526
  O           20.705245       14.480936       31.363425
  C           20.965016       13.365707       30.630361
  O           21.618163       13.310877       29.607280
  O           20.360193       12.317346       31.241694
  C           20.547219       11.069630       30.573093
  H           22.711053       15.839137       32.462572
  H           23.107608       16.822244       31.026032
  H           23.337294       15.062664       31.014984
  H           20.645946       16.518215       31.220685
  H           21.235533       15.729832       29.758447
  H           20.120426       11.102804       29.559315
  H           20.022630       10.297989       31.140962
  H           21.607037       10.809249       30.535845
  C           10.115631       35.772249       15.990487
  C            8.702805       35.290099       16.225546
  O            7.757149       36.234013       15.717843
  C            7.417662       37.232270       16.576232
  O            7.833590       37.383178       17.707837
  O            6.523782       38.034397       15.946810
  C            6.072805       39.133508       16.738879
  H           10.282237       35.974039       14.922581
  H           10.843712       35.020219       16.323428
  H           10.310803       36.701050       16.522968
  H            8.537129       34.346018       15.679047
  H            8.525740       35.066947       17.287597
  H            5.558675       38.776660       17.644046
  H            5.360575       39.710586       16.144900
  H            6.908590       39.784810       17.002828
  C           23.396001        7.742962       23.147124
  C           22.364809        6.839441       22.511441
  O           21.145348        7.549127       22.282839
  C           20.283163        7.572196       23.333889
  O           20.453581        7.051276       24.418279
  O           19.189249        8.279518       22.957530
  C           18.188934        8.383318       23.971135
  H           23.560541        8.636674       22.528169
  H           24.353104        7.217359       23.266266
  H           23.068950        8.090387       24.125200
  H           22.726386        6.499382       21.526036
  H           22.201888        5.931763       23.110338
  H           17.811710        7.387841       24.249930
  H           17.356667        8.965101       23.568692
  H           18.582098        8.904586       24.846407
  C           36.394499       38.131742       35.962159
  C           35.728172       38.947347       34.878371
  O           36.107139       38.471844       33.584817
  C           37.258302       38.998491       33.088766
  O           37.969372       39.819520       33.633366
  O           37.474717       38.447249       31.868972
  C           38.658724       38.915665       31.222818
  H           36.160352       37.064276       35.841368
  H           36.056174       38.455111       36.955874
  H           37.477832       38.225667       35.918933
  H           34.632776       38.836966       34.951323
  H           35.938646       40.020189       34.995895
  H           38.604001       40.000722       31.047730
  H           38.737947       38.415662       30.254923
  H           39.542677       38.665468       31.813097
  C           28.595188       10.685390        9.981403
  C           29.148957       11.374758        8.755879
  O           29.136436       12.793761        8.926974
  C           27.973112       13.408056        8.583581
  O           26.973470       12.869731        8.150888
  O           28.124688       14.737110        8.805482
  C           26.971303       15.514205        8.482025
  H           29.152941       10.987303       10.879546
  H           28.661750        9.593966        9.877176
  H           27.553914       10.953150       10.149788
  H           30.201845       11.079806        8.608127
  H           28.612402       11.069304        7.845985
  H           26.726605       15.422332        7.413062
  H           27.197342       16.561759        8.693301
  H           26.121234       15.214217        9.098296
  C            9.659913       27.018262        3.429086
  C           10.732256       26.681702        4.439337
  O           10.528726       27.410400        5.652010
  C           11.079153       28.653321        5.679895
  O           11.715800       29.180470        4.789337
  O           10.795749       29.205468        6.885472
  C           11.320270       30.522272        7.057821
  H            8.661206       26.830167        3.848735
  H            9.778355       26.413281        2.519982
  H            9.694086       28.069777        3.150790
  H           10.676300       25.610289        4.696906
  H           11.738370       26.847986        4.028018
  H           12.418612       30.516348        6.989924
  H           11.040131       30.871785        8.054046
  H           10.893066       31.205103        6.320503
  C           21.117887       20.439741       29.648109
  C           22.343266       19.895839       28.950674
  O           22.929227       20.892851       28.110664
  C           22.412090       20.969289       26.855544
  O           21.523313       20.278465       26.398229
  O           23.068573       21.955398       26.195834
  C           22.627660       22.146697       24.851289
  H           21.367543       21.347855       30.215472
  H           20.702521       19.695792       30.341298
  H           20.344827       20.714887       28.933285
  H           23.105219       19.620816       29.699800
  H           22.113367       18.976671       28.392664
  H           22.790825       21.236732       24.254346
  H           23.216808       22.955005       24.412378
  H           21.575175       22.436919       24.830146
  C           10.976990       27.042545       21.135706
  C            9.656337       27.603756       21.609751
  O            8.682731       26.564701       21.734072
  C            7.998703       26.273055       20.595807
  O            8.136661       26.808724       19.513991
  O            7.125631       25.275458       20.880672
  C            6.330034       24.865919       19.767971
  H           11.322562       26.245957       21.810189
  H           11.743163       27.828778       21.099435
  H           10.887199       26.602150       20.144601
  H            9.780147       28.047524       22.612318
  H            9.305763       28.414383       20.954707
  H            5.711939       25.699920       19.402732
  H            5.664726       24.066609       20.101993
  H            6.961849       24.476054       18.967212
  C            8.718328       35.009752        7.149918
  C            9.288738       36.403796        7.027138
  O            8.638013       37.296283        7.934345
  C            7.495608       37.866064        7.466521
  O            6.997644       37.690520        6.372210
  O            7.006656       38.674182        8.439389
  C            5.799231       39.347190        8.081640
  H            8.791016       34.652665        8.187272
  H            9.259020       34.309525        6.498892
  H            7.664261       34.988038        6.880158
  H           10.357560       36.392846        7.300815
  H            9.239311       36.768470        5.990957
  H            5.960743       40.001595        7.211773
  H            5.493693       39.968685        8.926323
  H            5.004035       38.626882        7.878612
  C           31.083342       24.388434       26.429324
  C           32.136533       23.956446       25.435355
  O           31.610538       22.976300       24.537779
  C           31.686041       21.691109       24.975023
  O           32.154060       21.314802       26.031267
  O           31.147951       20.895191       24.018167
  C           31.163785       19.505071       24.343923
  H           30.189077       24.759048       25.907946
  H           31.466407       25.186325       27.079808
  H           30.764127       23.556858       27.054531
  H           32.443762       24.820140       24.821316
  H           33.044832       23.599345       25.941885
  H           32.196103       19.147225       24.475328
  H           30.713731       18.956459       23.513516
  H           30.573457       19.314738       25.242637
  C           38.884704       29.684905       35.286516
  C           38.720006       31.185381       35.358952
  O           38.497359       31.603411       36.707536
  C           37.200844       31.574741       37.115980
  O           36.241899       31.238795       36.449748
  O           37.162740       31.993641       38.405038
  C           35.850871       32.017994       38.968248
  H           39.696305       29.352957       35.949852
  H           39.117846       29.368265       34.260903
  H           37.981181       29.171341       35.609314
  H           39.647936       31.677307       35.020790
  H           37.922908       31.535128       34.687080
  H           35.202150       32.714044       38.415368
  H           35.930429       32.369085       39.999513
  H           35.418798       31.015191       38.978187
  C           12.043842        4.165471       11.482097
  C           13.068372        5.248729       11.728454
  O           12.645690        6.110742       12.787356
  C           11.842655        7.140848       12.409707
  O           11.468650        7.387352       11.280258
  O           11.532506        7.853764       13.520633
  C           10.689406        8.978781       13.270995
  H           11.847811        3.601998       12.405660
  H           12.395219        3.465704       10.711798
  H           11.093314        4.585525       11.159062
  H           14.020891        4.792823       12.048229
  H           13.288464        5.810368       10.809095
  H           11.182188        9.692538       12.593710
  H           10.503275        9.481568       14.222657
  H            9.731101        8.656226       12.858670
  C           17.560048        7.050039       32.887875
  C           17.283871        6.467500       34.254687
  O           17.025510        7.505927       35.202273
  C           18.128072        8.034619       35.796784
  O           19.281128        7.705394       35.600898
  O           17.714013        8.997986       36.656482
  C           18.776100        9.642403       37.360399
  H           16.726672        7.690702       32.565484
  H           17.697077        6.252195       32.145468
  H           18.453331        7.671560       32.895458
  H           16.377885        5.839058       34.214078
  H           18.101170        5.809638       34.583839
  H           19.330451        8.918906       37.977041
  H           18.338565       10.393017       38.022396
  H           19.447657       10.147610       36.663135
  C           24.043203        7.427252       36.817668
  C           23.565386        8.573102       35.955973
  O           23.253471        8.116508       34.637932
  C           24.303112        8.079535       33.774516
  O           25.449978        8.397562       34.019172
  O           23.843437        7.626566       32.581991
  C           24.846274        7.539261       31.569323
  H           23.295805        6.621086       36.837482
  H           24.223746        7.763990       37.847480
  H           24.963935        6.996628       36.428932
  H           22.635761        8.991940       36.377603
  H           24.294999        9.395609       35.940246
  H           25.275853        8.530470       31.359639
  H           24.375263        7.169403       30.655838
  H           25.627994        6.835638       31.862971
  C           14.174442       28.091430       33.313602
  C           12.685826       28.206773       33.547090
  O           12.385452       29.372203       34.318159
  C           12.449662       29.206918       35.666179
  O           12.727418       28.180876       36.254728
  O           12.143228       30.394362       36.244689
  C           12.167931       30.367418       37.672087
  H           14.561911       29.001914       32.834240
  H           14.401582       27.231485       32.669085
  H           14.714226       27.972272       34.251011
  H           12.166269       28.320338       32.580362
  H           12.279884       27.295903       34.010371
  H           11.427151       29.652777       38.061358
  H           11.906833       31.363952       38.035196
  H           13.168040       30.120064       38.034025
  C           28.281588       22.238191        1.597706
  C           28.285184       22.369813        3.103184
  O           29.622901       22.465509        3.597507
  C           30.239552       21.276835        3.832873
  O           29.762274       20.171601        3.668665
  O           31.488331       21.540887        4.290504
  C           32.256510       20.373996        4.585576
  H           28.822363       23.076487        1.135406
  H           27.253685       22.227379        1.210666
  H           28.780051       21.324853        1.278885
  H           27.768956       23.300085        3.395591
  H           27.732502       21.547369        3.579869
  H           31.774752       19.779925        5.376771
  H           33.236485       20.694642        4.946041
  H           32.400513       19.771735        3.686163
  C           12.350915       23.879631        5.261874
  C           11.818474       23.095826        4.084607
  O           10.816510       23.844246        3.392556
  C            9.554588       23.712292        3.881166
  O            9.214658       23.027731        4.825689
  O            8.733756       24.480088        3.122665
  C            7.363895       24.435043        3.522979
  H           12.733388       24.856939        4.934027
  H           13.164315       23.332602        5.757494
  H           11.569605       24.074199        5.993992
  H           12.632971       22.909336        3.364040
  H           11.448042       22.107820        4.394000
  H            6.966886       23.412080        3.439725
  H            6.792536       25.080325        2.851967
  H            7.249314       24.810275        4.542034
  C           11.298511       19.060771       20.869909
  C           12.060390       20.128037       20.118720
  O           13.094568       19.543780       19.323662
  C           14.275086       19.341438       19.967119
  O           14.520714       19.612128       21.125865
  O           15.139229       18.784554       19.082960
  C           16.432739       18.518140       19.625782
  H           10.895807       18.311216       20.173565
  H           10.464261       19.501431       21.432356
  H           11.943658       18.530867       21.567968
  H           11.380177       20.650599       19.424718
  H           12.454820       20.895389       20.800407
  H           16.915059       19.449475       19.958922
  H           17.047240       18.076415       18.838148
  H           16.363732       17.804778       20.449647
  C           33.853117       37.015605       37.314863
  C           32.689858       36.086205       37.573407
  O           32.943930       34.794121       37.017560
  C           32.598289       34.647899       35.710751
  O           32.101023       35.496050       34.996842
  O           32.903284       33.379641       35.340481
  C           32.587482       33.080866       33.980407
  H           34.785858       36.585265       37.706910
  H           33.686929       37.989558       37.794755
  H           34.001729       37.176932       36.248941
  H           32.560618       35.946917       38.660282
  H           31.745900       36.510937       37.202401
  H           31.507301       33.186696       33.798728
  H           32.867770       32.043070       33.786706
  H           33.155878       33.723044       33.304439
  C            4.804488       13.215319       34.447800
  C            4.117662       12.192098       35.322493
  O            4.551348       12.316095       36.678790
  C            5.681867       11.628000       36.990323
  O            6.333466       10.932116       36.237021
  O            5.955911       11.851403       38.299365
  C            7.125815       11.181198       38.769419
  H            4.633364       14.230542       34.833725
  H            4.426566       13.162954       33.417784
  H            5.881534       13.060716       34.428535
  H            3.028839       12.370526       35.317393
  H            4.264927       11.172027       34.939258
  H            7.014178       10.090403       38.676129
  H            7.254448       11.423598       39.826678
  H            8.009093       11.525141       38.227271
  C           36.844903       27.883089        6.688718
  C           37.620190       28.322363        5.468157
  O           36.738816       28.549414        4.366056
  C           36.447738       27.449680        3.621436
  O           36.865264       26.323410        3.804435
  O           35.607181       27.831760        2.628421
  C           35.217229       26.769216        1.757941
  H           36.068881       28.620541        6.939425
  H           37.512710       27.768492        7.553241
  H           36.338115       26.935636        6.516093
  H           38.126621       29.280516        5.675211
  H           38.412409       27.603105        5.214868
  H           36.093889       26.339880        1.249868
  H           34.548069       27.180291        0.998768
  H           34.677618       25.997999        2.311514
  C           15.184674       12.524539       18.349176
  C           16.093176       11.603460       17.568127
  O           15.356812       10.498030       17.040119
  C           15.223481        9.437127       17.879944
  O           15.668783        9.348845       19.006982
  O           14.505148        8.485124       17.234740
  C           14.288920        7.301445       18.003473
  H           14.346072       12.861902       17.723211
  H           15.735785       13.406429       18.702797
  H           14.753716       12.018470       19.210842
  H           16.518639       12.145163       16.706188
  H           16.947241       11.271147       18.175779
  H           15.246078        6.822372       18.259083
  H           13.707504        6.603776       17.396584
  H           13.719525        7.529260       18.906960
  C           24.365686        2.933539       11.494593
  C           24.642106        4.414543       11.612996
  O           23.420186        5.156033       11.623242
  C           22.929704        5.480690       10.397426
  O           23.429988        5.206781        9.324584
  O           21.778179        6.172599       10.581414
  C           21.149362        6.585111        9.367650
  H           23.698963        2.599267       12.302456
  H           25.299603        2.357955       11.549383
  H           23.869220        2.697233       10.555454
  H           25.149953        4.621881       12.570337
  H           25.322326        4.760985       10.821555
  H           21.806941        7.258287        8.797190
  H           20.239397        7.131654        9.625242
  H           20.871320        5.717702        8.765409
  O           23.903673       21.232089       16.193848
  C           25.096643       21.284387       15.942874
  O           25.744375       20.466121       15.066813
  C           27.121897       20.680889       15.249595
  C           27.172238       22.074800       15.791700
  O           25.959346       22.175610       16.523362
  H           27.495133       19.941991       15.967664
  H           27.671567       20.581418       14.313396
  H           27.171131       22.825355       14.996925
  H           28.033505       22.248051       16.446454
  O           27.101237       16.046278       10.883166
  C           28.295419       15.923276       11.101570
  O           29.224291       16.904227       10.923997
  C           30.487037       16.297362       11.043526
  C           30.204133       15.107775       11.906224
  O           28.873145       14.765034       11.549016
  H           30.830358       16.012592       10.042559
  H           31.215432       16.971355       11.494830
  H           30.233774       15.355357       12.970566
  H           30.883202       14.269523       11.714658
  O           11.039229       12.375481       27.631479
  C           11.763194       12.245136       26.657937
  O           11.734144       11.184805       25.802686
  C           12.869415       11.292458       24.980087
  C           13.157096       12.760865       25.000601
  O           12.722958       13.152066       26.294852
  H           13.678344       10.704202       25.427846
  H           12.672202       10.923957       23.973204
  H           12.575397       13.304320       24.251413
  H           14.219765       12.990289       24.864224
  O           13.832173       33.608742        3.396363
  C           14.104254       32.423455        3.496197
  O           15.360618       31.925054        3.668672
  C           15.276173       30.533207        3.487753
  C           13.851270       30.238157        3.837033
  O           13.174068       31.420151        3.435925
  H           15.502832       30.305975        2.439950
  H           15.977929       30.001358        4.130539
  H           13.712291       30.096509        4.912031
  H           13.452801       29.366158        3.306618
  O           34.926959        7.803594        5.365344
  C           35.842673        7.009750        5.507403
  O           37.148758        7.352518        5.689753
  C           37.902393        6.172410        5.561386
  C           36.918341        5.107357        5.931123
  O           35.682003        5.649819        5.490891
  H           38.236529        6.086515        4.521253
  H           38.772083        6.177787        6.218737
  H           36.871683        4.947832        7.011574
  H           37.117983        4.150393        5.436288
  O           38.090938       12.639205       25.041649
  C           37.097389       12.448268       25.723781
  O           36.394458       13.423432       26.365298
  C           35.491207       12.776141       27.226838
  C           35.297247       11.446750       26.567672
  O           36.554013       11.211661       25.949714
  H           35.958381       12.686291       28.214043
  H           34.557578       13.331181       27.320473
  H           34.522836       11.479122       25.796803
  H           35.061247       10.647306       27.278794
  O           24.446026       17.971011       26.179409
  C           24.681985       16.923485       26.758989
  O           24.423986       16.687286       28.075897
  C           25.059988       15.477483       28.406014
  C           25.128796       14.767952       27.090251
  O           25.255957       15.833665       26.160367
  H           26.053737       15.706989       28.806874
  H           24.493778       14.915878       29.149321
  H           24.211433       14.214525       26.873078
  H           25.983824       14.086839       27.016000
  O           36.771669        6.847237       33.069690
  C           37.279422        7.744152       33.722860
  O           38.512946        8.274177       33.490284
  C           38.821476        9.089883       34.593249
  C           37.471022        9.473653       35.111318
  O           36.676166        8.339142       34.798764
  H           39.389983        8.494001       35.316176
  H           39.412825        9.957026       34.298514
  H           37.064442       10.346001       34.592953
  H           37.465187        9.663577       36.190389
  O           32.942601       35.794069       29.449351
  C           33.564099       36.844068       29.437417
  O           33.016730       38.074957       29.642107
  C           34.000728       39.020780       29.304072
  C           35.275083       38.265960       29.517771
  O           34.910470       36.930282       29.202144
  H           33.858839       39.308474       28.256217
  H           33.936344       39.909365       29.932381
  H           35.607731       38.306987       30.558282
  H           36.088528       38.607763       28.868173
  O           20.077786       29.686638       12.784203
  C           20.790373       29.588910       13.769885
  O           20.719620       28.581642       14.684764
  C           21.521405       28.963193       15.775021
  C           22.509003       29.898153       15.150602
  O           21.761944       30.495506       14.100996
  H           20.885421       29.463406       16.514081
  H           22.003431       28.102776       16.239601
  H           23.363002       29.367570       14.721456
  H           22.874673       30.661138       15.846762
  O           40.006159       38.479352       36.759118
  C           39.601043       37.651127       35.959854
  O           39.232921       36.378179       36.277171
  C           39.070903       35.685585       35.064255
  C           38.749775       36.780624       34.096183
  O           39.470875       37.887487       34.617211
  H           40.014314       35.182259       34.824380
  H           38.274392       34.944006       35.128532
  H           37.683845       37.022971       34.088311
  H           39.073335       36.555920       33.073776
  O           37.079149       22.300442       21.058685
  C           36.980879       23.474040       20.739452
  O           35.988323       23.988318       19.960381
  C           36.368846       25.300379       19.627516
  C           37.274529       25.680662       20.756464
  O           37.872068       24.443488       21.115555
  H           36.892346       25.275339       18.665113
  H           35.505443       25.961418       19.549644
  H           36.720610       26.070017       21.614705
  H           38.039680       26.408420       20.464211
  O           20.334506       11.347021        9.470466
  C           21.353630       10.766332        9.806750
  O           21.652865        9.474456        9.493516
  C           22.772911        9.116280       10.264429
  C           23.436070       10.433278       10.519646
  O           22.341770       11.337246       10.563808
  H           22.420523        8.642601       11.187658
  H           23.422892        8.422846        9.730413
  H           24.103236       10.722695        9.703479
  H           23.993482       10.455657       11.462668
  O           14.813080       25.818177        5.838354
  C           15.896433       25.256708        5.839060
  O           17.095663       25.878763        5.661592
  C           18.057134       24.868529        5.482427
  C           17.448272       23.700144        6.192049
  O           16.055391       23.907081        6.008586
  H           18.173103       24.687710        4.407831
  H           19.021224       25.152156        5.905022
  H           17.670620       23.707690        7.262332
  H           17.754250       22.736569        5.769673
  O           27.117814       13.432907       19.196406
  C           28.149599       12.925516       18.787905
  O           29.310059       13.600666       18.555300
  C           30.164058       12.720113       17.867977
  C           29.668731       11.374416       18.295940
  O           28.279716       11.594526       18.492885
  H           30.039090       12.886062       16.791992
  H           31.208097       12.881102       18.137353
  H           30.115036       11.053391       19.240798
  H           29.833188       10.598155       17.540380
  O           27.202088       17.735177       24.995765
  C           26.651185       18.823882       24.984549
  O           26.508814       19.612902       23.882833
  C           26.053122       20.864580       24.333108
  C           25.361638       20.525047       25.616061
  O           26.104890       19.413190       26.093503
  H           26.922123       21.513864       24.488572
  H           25.381098       21.330447       23.612102
  H           24.325152       20.216970       25.455481
  H           25.382967       21.344465       26.343109
  O           39.121946       21.609176        3.204590
  C           38.980248       21.659950        4.415476
  O           40.000189       21.729534        5.316296
  C           39.437051       21.520831        6.587681
  C           38.019996       21.963999        6.400714
  O           37.762538       21.641787        5.041856
  H           39.510631       20.454183        6.827989
  H           39.952866       22.098315        7.355110
  H           37.904910       23.042371        6.538083
  H           37.318208       21.442159        7.060772
  O           36.040733        3.922667        9.881079
  C           35.078431        4.285305       10.537864
  O           34.954472        5.507354       11.127635
  C           33.838542        5.437972       11.980270
  C           33.009451        4.359832       11.356074
  O           33.984109        3.499697       10.784403
  H           34.185884        5.166795       12.983623
  H           33.310017        6.390259       12.028327
  H           32.365261        4.744726       10.561168
  H           32.395234        3.817571       12.083530
  O           23.518173        3.989940        6.544064
  C           22.661244        4.388849        5.772414
  O           22.342199        3.794443        4.588568
  C           21.501329        4.685048        3.898017
  C           20.880468        5.480797        5.002876
  O           21.902614        5.508392        5.988298
  H           22.119729        5.303198        3.237433
  H           20.757939        4.155180        3.302104
  H           19.998499        4.987342        5.419569
  H           20.610875        6.498029        4.697822
  O           21.219298       39.098365       14.320350
  C           20.889475       38.016795       13.861740
  O           21.612645       37.303044       12.953895
  C           20.785698       36.258977       12.503135
  C           19.841836       36.064246       13.647952
  O           19.727936       37.370935       14.192185
  H           20.272824       36.591693       11.593652
  H           21.359609       35.358632       12.282898
  H           20.252075       35.396497       14.410063
  H           18.860989       35.689860       13.334462
  O           21.892285       31.473452        8.268366
  C           21.637972       32.218858        9.200351
  O           20.939677       33.384302        9.096795
  C           21.079358       34.054538       10.324953
  C           21.338911       32.937259       11.286056
  O           22.034724       31.988625       10.490732
  H           21.928533       34.743032       10.248930
  H           20.181551       34.618268       10.579215
  H           20.412870       32.484601       11.650128
  H           21.948701       33.243649       12.143250
  O           14.102619        4.960800        7.286573
  C           14.446803        6.131447        7.291398
  O           13.593816        7.193440        7.325793
  C           14.362158        8.342793        7.069396
  C           15.729816        7.936177        7.520589
  O           15.752597        6.542214        7.250496
  H           14.324240        8.551770        5.994319
  H           13.986390        9.207436        7.616836
  H           15.872413        8.092625        8.593058
  H           16.529969        8.448231        6.974644
  O            6.646467       37.262394       28.358644
  C            6.124167       37.389599       27.263235
  O            5.375290       38.460614       26.877605
  C            4.761217       38.112853       25.661432
  C            5.692213       37.084051       25.100885
  O            6.210834       36.456608       26.264477
  H            3.769483       37.700921       25.879782
  H            4.654842       38.975975       25.004010
  H            6.516860       37.535952       24.543442
  H            5.186005       36.352676       24.461085
  O           39.524329        6.205679       24.282986
  C           39.354803        5.041274       24.605976
  O           38.854445        4.631053       25.805125
  C           39.050093        3.240393       25.875022
  C           39.091506        2.837426       24.434431
  O           39.659072        3.975186       23.801999
  H           39.999883        3.049789       26.387340
  H           38.243567        2.748193       26.418855
  H           38.091894        2.665937       24.026548
  H           39.707943        1.949262       24.256469
  O           28.947342       13.310231       24.071035
  C           28.751352       12.125098       24.285389
  O           28.543977       11.580754       25.517170
  C           28.609165       10.184670       25.362897
  C           28.230406        9.990439       23.928248
  O           28.724566       11.167679       23.306547
  H           29.635669        9.861189       25.569172
  H           27.927856        9.673200       26.043130
  H           27.146782        9.944621       23.791652
  H           28.685352        9.098703       23.482904
  O           37.357811       23.236948       32.955103
  C           37.815565       22.131977       32.713444
  O           37.205344       21.188063       31.943212
  C           37.924744       19.992385       32.116179
  C           39.288382       20.476738       32.497351
  O           39.013845       21.680455       33.198989
  H           37.449615       19.415396       32.917575
  H           37.938058       19.396100       31.203618
  H           39.902151       20.707448       31.622674
  H           39.829060       19.771264       33.138034
  O           25.010638        4.915638       21.646654
  C           25.402302        5.082389       20.503109
  O           25.732600        4.081380       19.639695
  C           26.361595        4.684775       18.536345
  C           25.795431        6.069962       18.547132
  O           25.576524        6.313437       19.928942
  H           27.443910        4.676846       18.707901
  H           26.141004        4.155323       17.609242
  H           24.839255        6.127448       18.020424
  H           26.480502        6.815122       18.127711
  O            4.307893       33.724526       19.445542
  C            3.589256       32.794281       19.772808
  O            2.279878       32.660754       19.420247
  C            1.754996       31.607795       20.190232
  C            2.965834       30.783074       20.495366
  O            4.002703       31.751346       20.558206
  H            1.302516       32.031835       21.093754
  H            0.999942       31.045714       19.640270
  H            3.191388       30.072389       19.695959
  H            2.885915       30.241017       21.444201
  O           34.783525       20.890001       25.246292
  C           34.274583       20.825398       26.353407
  O           34.005930       21.897441       27.150369
  C           33.661818       21.389634       28.415604
  C           33.146519       20.021505       28.096086
  O           33.910620       19.651578       26.957708
  H           34.566018       21.359215       29.033986
  H           32.911517       22.009617       28.906694
  H           32.087704       20.033990       27.824507
  H           33.298381       19.306118       28.911965
  O           13.301751       10.871757        2.499244
  C           14.061824       11.795275        2.740706
  O           13.682020       13.093604        2.904079
  C           14.857846       13.864564        2.916467
  C           15.890720       12.888522        3.385417
  O           15.417692       11.652634        2.870221
  H           15.051513       14.216867        1.897018
  H           14.768123       14.723171        3.582232
  H           15.932360       12.826167        4.476003
  H           16.892812       13.108736        3.000949
  O           26.274523       26.665450       13.105624
  C           27.303492       26.018666       12.997036
  O           28.560425       26.543247       13.036219
  C           29.440808       25.524758       12.630381
  C           28.690955       24.277871       12.980230
  O           27.335083       24.662806       12.806914
  H           29.607282       25.620695       11.551501
  H           30.397607       25.590826       13.148715
  H           28.846273       23.983122       14.021383
  H           28.938640       23.432861       12.328226
  O           30.667991       31.557228       35.032264
  C           29.462447       31.370712       35.004445
  O           28.840960       30.232855       35.423536
  C           27.503101       30.318362       34.999363
  C           27.279584       31.794636       34.899088
  O           28.560220       32.286070       34.531576
  H           27.415146       29.817834       34.028469
  H           26.825402       29.845074       35.710152
  H           26.992677       32.233153       35.858456
  H           26.531893       32.063576       34.144682
  O           27.434565       18.449265       31.217983
  C           26.906982       19.549405       31.202246
  O           25.562041       19.767836       31.206833
  C           25.369251       21.133753       30.934431
  C           26.648029       21.750943       31.406875
  O           27.603154       20.728172       31.165473
  H           25.223569       21.254241       29.855005
  H           24.500249       21.529438       31.460519
  H           26.627056       21.971988       32.477249
  H           26.911249       22.662133       30.858288
  O           14.759784       19.071723       38.796274
  C           14.267300       18.723413       37.735595
  O           13.419439       19.481217       36.984951
  C           12.892697       18.639740       35.989179
  C           13.951598       17.592281       35.844412
  O           14.493156       17.504203       37.154204
  H           11.945155       18.225464       36.351726
  H           12.715930       19.180081       35.058972
  H           14.741253       17.898652       35.153340
  H           13.553136       16.622732       35.525502
  O           29.451279       36.463286       25.668817
  C           29.543597       35.427186       25.030949
  O           30.390574       35.231966       23.981607
  C           30.017947       34.018763       23.376309
  C           29.367968       33.272697       24.498945
  O           28.791042       34.310084       25.278422
  H           29.317357       34.238635       22.562840
  H           30.881436       33.489137       22.973341
  H           30.096147       32.732488       25.109624
  H           28.597529       32.572479       24.157448
  O           23.457489        6.317748        4.659042
  C           23.505395        7.477006        4.281254
  O           22.512914        8.115314        3.599971
  C           23.049465        9.331214        3.140839
  C           24.145118        9.603376        4.123119
  O           24.580901        8.300537        4.482708
  H           23.430572        9.179594        2.124636
  H           22.299276       10.122145        3.128811
  H           23.778299       10.114632        5.017021
  H           24.970657       10.181608        3.693428
  O            5.445745       28.359678       36.176088
  C            5.182543       29.498874       35.827007
  O            6.102225       30.425787       35.437625
  C            5.431281       31.659017       35.359659
  C            4.013914       31.251207       35.106358
  O            3.912796       30.010604       35.789937
  H            5.549443       32.178501       36.317299
  H            5.830734       32.283719       34.560482
  H            3.816595       31.088340       34.043560
  H            3.285654       31.969117       35.499731
  O           10.653538       33.498181        7.994631
  C           11.690764       33.591744        8.630483
  O           12.213243       32.609029        9.416541
  C           13.258290       33.190180       10.156296
  C           13.683354       34.333790        9.289765
  O           12.474130       34.714888        8.650123
  H           12.856147       33.525327       11.119031
  H           14.068013       32.481753       10.332307
  H           14.406142       34.026909        8.529238
  H           14.098590       35.171619        9.860835
  O           33.591143       35.162299        4.693977
  C           32.870561       34.201054        4.907681
  O           31.532840       34.158937        4.652088
  C           31.037466       32.991919        5.260177
  C           32.240478       32.102934        5.303393
  O           33.311401       33.023772        5.450975
  H           30.675526       33.250377        6.261725
  H           30.221030       32.554856        4.684930
  H           32.375183       31.547777        4.371376
  H           32.220420       31.396809        6.140940
  O           22.128444       17.626654       39.144318
  C           20.998496       17.268626       38.854609
  O           19.988613       18.104195       38.482369
  C           18.807584       17.341138       38.478914
  C           19.310369       15.950938       38.246640
  O           20.583373       15.963742       38.875843
  H           18.322394       17.449844       39.455476
  H           18.120535       17.668009       37.698133
  H           19.441768       15.733506       37.183410
  H           18.667355       15.183734       38.692097
  O            8.995860       19.198639       29.445894
  C            7.796012       19.038738       29.291952
  O            7.124362       19.259972       28.127246
  C            5.752403       19.202808       28.429837
  C            5.715652       18.328955       29.644099
  O            6.949155       18.621462       30.284027
  H            5.401383       20.219667       28.638840
  H            5.175887       18.786569       27.603475
  H            5.692450       17.266986       29.385870
  H            4.873524       18.554438       30.307785
  O           36.081112       39.201763       10.863260
  C           35.830546       38.400231        9.978012
  O           35.140115       37.238545       10.152344
  C           35.282657       36.496880        8.966295
  C           35.533577       37.556261        7.939576
  O           36.224112       38.555350        8.675498
  H           36.136467       35.819736        9.081988
  H           34.388276       35.913081        8.747751
  H           34.604094       37.980242        7.550602
  H           36.144283       37.203069        7.101248
  O           15.804154        7.196896       20.666660
  C           16.034790        6.434625       21.591133
  O           17.254157        5.893193       21.867888
  C           17.047527        4.895528       22.836943
  C           15.795895        5.349468       23.520138
  O           15.085524        6.005160       22.479927
  H           16.916302        3.936267       22.323622
  H           17.890495        4.822657       23.524398
  H           16.000504        6.067892       24.318262
  H           15.206269        4.520522       23.927190
  O           24.131663       15.494338       22.117284
  C           22.930096       15.287043       22.070741
  O           22.339423       14.079264       22.292047
  C           20.993825       14.205572       21.904090
  C           20.737340       15.671082       22.065012
  O           22.001521       16.249092       21.774583
  H           20.902013       13.879588       20.861878
  H           20.337140       13.599985       22.529014
  H           20.455568       15.929157       23.089220
  H           19.972830       16.049367       21.377316
  O           19.809944       24.809557       23.737844
  C           18.940876       25.363335       24.391260
  O           17.609661       25.083999       24.311026
  C           16.937183       26.092063       25.024245
  C           17.970598       26.552484       26.003769
  O           19.187010       26.361121       25.296435
  H           16.650677       26.881682       24.320457
  H           16.043439       25.707887       25.516311
  H           17.984202       25.936818       26.906969
  H           17.851156       27.603653       26.288859
  O           39.240454       32.548773        9.409348
  C           38.159486       32.271489        9.902829
  O           37.135703       33.152964       10.080226
  C           36.181988       32.513213       10.891550
  C           36.432485       31.063215       10.619235
  O           37.828488       31.024383       10.361813
  H           36.380654       32.780353       11.935613
  H           35.166851       32.813339       10.630931
  H           35.897819       30.713058        9.732374
  H           36.178462       30.418673       11.468081
  O           31.692426       10.348241       11.921620
  C           31.816279       10.834262       13.033980
  O           32.008674       12.159135       13.287545
  C           32.347260       12.269597       14.647786
  C           31.717774       11.051513       15.247302
  O           31.790241       10.103881       14.192153
  H           33.439614       12.258369       14.734598
  H           31.961741       13.191309       15.084045
  H           30.668398       11.215878       15.505748
  H           32.251222       10.685894       16.131755
  O           36.647087       15.223156       16.714522
  C           36.321376       15.862770       17.701287
  O           35.035954       16.122763       18.071009
  C           35.092526       17.079717       19.099667
  C           36.448154       16.852458       19.691298
  O           37.214364       16.423069       18.575437
  H           34.996066       18.075279       18.651948
  H           34.294187       16.934422       19.827708
  H           36.440775       16.059324       20.443551
  H           36.880277       17.758438       20.130582
  O           30.249503        5.277103        2.728687
  C           30.683041        4.171847        2.446989
  O           31.960306        3.755481        2.674661
  C           32.120390        2.536825        1.991761
  C           30.721835        2.009234        1.920397
  O           29.939123        3.191767        1.845716
  H           32.536077        2.747811        1.000000
  H           32.789891        1.862175        2.525722
  H           30.444595        1.456015        2.821556
  H           30.548194        1.375436        1.043671
  O           34.491273        5.732995       23.315669
  C           34.338949        4.547000       23.072538
  O           35.275491        3.744649       22.493123
  C           34.632464        2.538295       22.163992
  C           33.503199        2.484950       23.144459
  O           33.187856        3.855486       23.341412
  H           34.280760        2.604901       21.128247
  H           35.304613        1.685465       22.260926
  H           33.808285        2.049765       24.099726
  H           32.632401        1.939295       22.764364
  O            9.672360       27.250686       30.973616
  C           10.567763       27.504694       30.184544
  O           10.753512       26.876934       28.989549
  C           12.012079       27.278927       28.508394
  C           12.209993       28.608973       29.165060
  O           11.526286       28.458663       30.400597
  H           12.756907       26.542006       28.829451
  H           12.022343       27.349468       27.420544
  H           11.745664       29.420400       28.598505
  H           13.265460       28.849183       29.334732
  O           37.972000       36.906879       15.786040
  C           36.948474       36.245408       15.847280
  O           36.902801       34.899243       16.053075
  C           35.578640       34.493653       15.809776
  C           34.793866       35.738024       16.083768
  O           35.691807       36.770538       15.704009
  H           35.500802       34.175024       14.764158
  H           35.285500       33.668703       16.459411
  H           34.554410       35.847872       17.144708
  H           33.868561       35.797170       15.499977
  O           24.854217       26.876716        9.688816
  C           25.878393       27.499066        9.459375
  O           26.861240       27.093611        8.607190
  C           27.958228       27.948923        8.812521
  C           27.315302       29.194854        9.335687
  O           26.188495       28.698460       10.043148
  H           28.625646       27.485436        9.547799
  H           28.508897       28.124778        7.888217
  H           26.969577       29.848404        8.530487
  H           27.969810       29.765547       10.003841
  O           31.990942       10.520792       22.673120
  C           32.332589       10.179849       21.552435
  O           31.968075       10.811698       20.401568
  C           32.354443        9.977427       19.337701
  C           33.485925        9.192992       19.924053
  O           33.128814        9.095748       21.295044
  H           31.503056        9.341720       19.069531
  H           32.660376       10.554942       18.465129
  H           34.439045        9.721959       19.841856
  H           33.590217        8.196445       19.480750
  O           40.001852       36.163415        1.786030
  C           38.814623       36.021584        2.029483
  O           37.884649       37.015961        1.975020
  C           36.709660       36.508509        2.557251
  C           36.846000       35.032797        2.349679
  O           38.250644       34.831946        2.406561
  H           36.704222       36.780099        3.618905
  H           35.817387       36.912521        2.078584
  H           36.481939       34.720375        1.367411
  H           36.340259       34.443767        3.122835
  O            2.862317       37.099586       11.972371
  C            3.071464       36.455115       12.987169
  O            3.595512       35.197694       13.016561
  C            3.444497       34.722998       14.331459
  C            3.402590       35.983217       15.137371
  O            2.793617       36.908810       14.249098
  H            2.505941       34.160412       14.390708
  H            4.271115       34.074144       14.621614
  H            4.403327       36.341518       15.392608
  H            2.812879       35.884163       16.055483
  O           11.386680       16.002810       17.647090
  C           12.551066       15.994436       18.011830
  O           12.988995       15.507412       19.206663
  C           14.330885       15.904873       19.342516
  C           14.774121       16.070654       17.922848
  O           13.587093       16.490102       17.265865
  H           14.357745       16.848451       19.899148
  H           14.919326       15.157114       19.874580
  H           15.108769       15.127152       17.483741
  H           15.564989       16.819997       17.806601
  O           19.470060        4.337849       35.673432
  C           20.251341        3.503029       36.099549
  O           21.429983        3.165020       35.505282
  C           21.901346        2.012919       36.159177
  C           21.270189        2.116508       37.512067
  O           20.041731        2.775078       37.240448
  H           21.554064        1.133740       35.604796
  H           22.990185        1.997744       36.211141
  H           21.860422        2.733114       38.195018
  H           21.090442        1.140253       37.975874
  O           22.340006        4.449534       26.250500
  C           21.311163        5.094737       26.369216
  O           20.058669        4.560498       26.418688
  C           19.153531        5.630826       26.308129
  C           19.943556        6.789849       26.829593
  O           21.274095        6.460837       26.458087
  H           18.887027        5.751081       25.251997
  H           18.248293        5.452891       26.888976
  H           19.887927        6.868736       27.918483
  H           19.644043        7.745745       26.385683
  O           27.419621       29.532633       15.196973
  C           28.366836       29.861681       15.892251
  O           29.668127       29.552962       15.631609
  C           30.406108       29.892369       16.779340
  C           29.569425       30.961598       17.408714
  O           28.248315       30.584647       17.049304
  H           30.488936       29.002369       17.413327
  H           31.405331       30.245937       16.524306
  H           29.782843       31.949393       16.991925
  H           29.676275       31.002163       18.498410
  O           11.322000       16.065991       35.034073
  C           11.388861       16.099298       36.251989
  O           12.361292       15.500020       36.994850
  C           11.946047       15.561275       38.336833
  C           11.042147       16.753817       38.351297
  O           10.478099       16.741328       37.048111
  H           11.414233       14.633775       38.577284
  H           12.792449       15.675958       39.014293
  H           11.594580       17.686810       38.490378
  H           10.256905       16.685905       39.112403
  O           23.718281       35.249589       34.627229
  C           24.902512       35.249294       34.333125
  O           25.575429       34.184131       33.814271
  C           26.943298       34.507574       33.851937
  C           26.932493       36.003600       33.817469
  O           25.729012       36.328819       34.497518
  H           27.365929       34.116406       34.784284
  H           27.480870       34.078540       33.006096
  H           26.879530       36.390987       32.796623
  H           27.795189       36.449193       34.325113
  O            4.970618        9.120476       35.304045
  C            5.521037        8.379130       34.506333
  O            6.856561        8.380198       34.236193
  C            7.044644        7.569049       33.103161
  C            5.871552        6.641642       33.159494
  O            4.861679        7.441937       33.756389
  H            7.026809        8.208124       32.213124
  H            7.994957        7.036369       33.143866
  H            6.062457        5.775517       33.798542
  H            5.553822        6.293580       32.170352
  O           13.815796       14.343897       15.885364
  C           13.255238       13.265761       15.774471
  O           13.888747       12.060386       15.726127
  C           12.925716       11.107771       15.349036
  C           11.644765       11.729262       15.809810
  O           11.897545       13.119682       15.670402
  H           12.962650       10.990581       14.260091
  H           13.109751       10.142253       15.820636
  H           11.435709       11.509733       16.860097
  H           10.782412       11.431026       15.203260
  O           25.916674        6.309301       15.707104
  C           27.023084        6.775795       15.489985
  O           28.184636        6.306201       16.025595
  C           29.181779        7.253154       15.732189
  C           28.656608        7.917962       14.498647
  O           27.249307        7.855122       14.677965
  H           29.259730        7.946792       16.576991
  H           30.149389        6.779157       15.566181
  H           28.923889        7.370492       13.590992
  H           28.987042        8.957933       14.399783
  O            5.356046        5.827837        9.701691
  C            4.669849        5.099477       10.399921
  O            3.707135        5.529695       11.262878
  C            3.333077        4.421240       12.042947
  C            3.663861        3.262839       11.155203
  O            4.783454        3.734858       10.420146
  H            3.932019        4.425859       12.960633
  H            2.275165        4.452752       12.304346
  H            2.852824        3.033605       10.459020
  H            3.923081        2.356538       11.713704
  O           25.940730       12.613578        4.364019
  C           25.701132       11.899019        5.323654
  O           26.556043       10.969018        5.834364
  C           25.821982       10.202405        6.756621
  C           24.738453       11.142460        7.182838
  O           24.521612       11.926676        6.018972
  H           25.427512        9.321320        6.237985
  H           26.441540        9.879194        7.593390
  H           25.058952       11.796992        7.997620
  H           23.817560       10.627597        7.478425
  O            4.466191       16.657329       18.044257
  C            4.692537       17.025255       19.185440
  O            5.069479       16.206201       20.207039
  C            4.986634       16.963137       21.389107
  C            5.163747       18.365927       20.898991
  O            4.585774       18.325318       19.602497
  H            3.999237       16.800530       21.835767
  H            5.756597       16.675200       22.105172
  H            6.218161       18.640149       20.809474
  H            4.653529       19.105517       21.526035
  O            6.555141        3.321891        4.205882
  C            6.765580        4.523804        4.201319
  O            7.999055        5.097793        4.125982
  C            7.829608        6.466942        4.397678
  C            6.408075        6.711742        3.999288
  O            5.779577        5.470604        4.284186
  H            7.995122        6.630395        5.468561
  H            8.529604        7.078964        3.828526
  H            6.310872        6.922223        2.930995
  H            5.938137        7.521857        4.567946
  O           11.018048       38.537711        7.780988
  C           10.273242       38.606637        8.745048
  O           10.142337       37.641685        9.698113
  C            9.025873       37.988254       10.479457
  C            8.950663       39.473409       10.311953
  O            9.448991       39.670903        8.996938
  H            8.145849       37.478857       10.070835
  H            9.158513       37.696025       11.521335
  H            9.596402       40.000202       11.019420
  H            7.930244       39.862517       10.400502
  O           12.506074       19.730593        6.496220
  C           11.309760       19.924077        6.638691
  O           10.388738       18.952243        6.891391
  C            9.121154       19.541389        6.738953
  C            9.390604       20.986982        7.016541
  O           10.721379       21.157631        6.551226
  H            8.782035       19.371829        5.710776
  H            8.394640       19.115960        7.431548
  H            9.356133       21.213809        8.085354
  H            8.706995       21.658906        6.485789
  O           12.837085       26.781596       31.014818
  C           13.637796       25.860967       31.000586
  O           13.855837       25.002909       32.036344
  C           15.007838       24.262391       31.717553
  C           15.028736       24.307056       30.221903
  O           14.444342       25.568670       29.933090
  H           15.875502       24.764271       32.160470
  H           14.948629       23.243143       32.099820
  H           14.412796       23.520334       29.778409
  H           16.040769       24.246293       29.806456
  O           16.923624       23.644417       14.077466
  C           17.551460       24.665534       14.305595
  O           17.010406       25.822100       14.781216
  C           18.001825       26.812913       14.669509
  C           19.270488       26.020384       14.711828
  O           18.899545       24.793236       14.101001
  H           17.867191       27.331038       13.713307
  H           17.939455       27.536883       15.482207
  H           19.597883       25.822781       15.735921
  H           20.089382       26.494464       14.159415
  O           19.366098       18.901911       12.491898
  C           20.052493       18.423091       13.379870
  O           20.216942       18.969687       14.617121
  C           21.258683       18.261076       15.241417
  C           21.215078       16.932050       14.554984
  O           20.768950       17.263417       13.248169
  H           22.198588       18.793466       15.056921
  H           21.098897       18.176424       16.316499
  H           20.491673       16.254591       15.016215
  H           22.192708       16.438908       14.515606
  O           30.548708       20.752725       37.735524
  C           30.485273       21.961236       37.891657
  O           29.357615       22.643243       38.237859
  C           29.640346       24.010624       38.072233
  C           31.126938       24.065068       38.234957
  O           31.548878       22.808007       37.726662
  H           29.320943       24.310951       37.067899
  H           29.121015       24.620551       38.811681
  H           31.423162       24.141470       39.284439
  H           31.588946       24.883752       37.672102
  O           21.193989       32.912530       37.417952
  C           22.014145       33.815082       37.458504
  O           23.354477       33.657916       37.270336
  C           23.963608       34.870187       37.639738
  C           22.870204       35.869825       37.428571
  O           21.696664       35.122648       37.713408
  H           24.265067       34.799862       38.690964
  H           24.840789       35.081682       37.027919
  H           22.826579       36.218999       36.393595
  H           22.947852       36.735671       38.095490
  O           35.280554       24.463617       17.068799
  C           35.511403       25.137587       16.078156
  O           34.646267       25.319035       15.041229
  C           35.371076       25.939756       14.008535
  C           36.463521       26.646938       14.747356
  O           36.690105       25.801704       15.865765
  H           35.757291       25.161577       13.340572
  H           34.746997       26.626732       13.436617
  H           36.148514       27.631139       15.103895
  H           37.378660       26.756863       14.154958
  O           39.783477       15.307701        9.443327
  C           39.280695       14.210916        9.261188
  O           37.943226       13.952628        9.293807
  C           37.797093       12.554170        9.286012
  C           39.053521       12.092095        8.617226
  O           40.001661       13.074463        9.007846
  H           37.726828       12.207704       10.323279
  H           36.902927       12.246830        8.743325
  H           38.965119       12.097109        7.527657
  H           39.371571       11.096469        8.945971
  O           37.500060        1.000000       15.197120
  C           37.077827        2.090715       15.544915
  O           35.766402        2.380640       15.774496
  C           35.674251        3.777364       15.907805
  C           37.046156        4.158887       16.367933
  O           37.872834        3.188129       15.742767
  H           35.431164        4.203318       14.927819
  H           34.903777        4.062433       16.624467
  H           37.154897        4.072878       17.452266
  H           37.335408        5.169284       16.058203
  O           27.398640       25.218988       24.583235
  C           28.282340       26.011466       24.300475
  O           28.127080       27.364114       24.247214
  C           29.289647       27.885479       23.652473
  C           30.319058       26.845788       23.966730
  O           29.562794       25.643955       23.982867
  H           29.113312       27.983474       22.575346
  H           29.548506       28.861138       24.064276
  H           30.767999       26.996293       24.952021
  H           31.114695       26.791091       23.215417
  O           17.816397       14.406903       15.138274
  C           18.680060       13.618370       15.486415
  O           18.869244       12.382202       14.945398
  C           19.781331       11.707979       15.776434
  C           20.545147       12.828152       16.409836
  O           19.580026       13.866892       16.488313
  H           19.214559       11.124185       16.510502
  H           20.425838       11.039002       15.205838
  H           21.377508       13.163019       15.785304
  H           20.924042       12.577213       17.406815
  O           10.465826       32.482950       25.475164
  C           11.049786       33.297034       26.171697
  O           11.719320       33.000348       27.320741
  C           12.029509       34.223948       27.940163
  C           12.063771       35.180080       26.789494
  O           11.102332       34.637511       25.896268
  H           11.233359       34.461861       28.654615
  H           12.982737       34.177058       28.467097
  H           13.039000       35.194538       26.295814
  H           11.791827       36.202391       27.074847
  O           15.104474       19.067372       14.528864
  C           14.415106       18.581557       13.647017
  O           13.138927       18.134254       13.814012
  C           12.795397       17.433743       12.644238
  C           13.682973       18.054754       11.611787
  O           14.839549       18.406873       12.356733
  H           13.017554       16.371838       12.798847
  H           11.738327       17.548186       12.403393
  H           13.245638       18.961211       11.185085
  H           13.941659       17.365775       10.800067
  O           25.195213       35.686072       18.577721
  C           25.423760       34.540679       18.930910
  O           24.676430       33.455394       18.584131
  C           25.115905       32.384880       19.382856
  C           26.525186       32.769056       19.708027
  O           26.468198       34.187545       19.743280
  H           24.482005       32.335962       20.275423
  H           25.058833       31.435881       18.849336
  H           27.225865       32.460942       18.927569
  H           26.865084       32.372379       20.671156
  O           20.112427       29.277979       36.979690
  C           19.742407       28.397208       37.738786
  O           18.440808       28.080686       37.988293
  C           18.437532       27.200947       39.085174
  C           19.792575       26.570388       39.009972
  O           20.595060       27.605336       38.460881
  H           18.302976       27.788944       40.000081
  H           17.635222       26.466805       39.008792
  H           19.809392       25.711328       38.334152
  H           20.176047       26.263006       39.989239
  O           36.545601       24.130712       22.842351
  C           36.601663       24.337260       24.043640
  O           37.496550       23.757788       24.892161
  C           37.074792       24.059938       26.199038
  C           36.302237       25.328199       26.014448
  O           35.755001       25.180738       24.712377
  H           36.444976       23.238204       26.558182
  H           37.920767       24.185969       26.875013
  H           36.948791       26.209513       26.030363
  H           35.505556       25.455279       26.755831
  O           38.541287        8.225701       23.470132
  C           37.986401        9.118989       22.851233
  O           37.595082       10.309616       23.385908
  C           36.787126       10.942885       22.425035
  C           37.272458       10.350227       21.139497
  O           37.667023        9.040739       21.521806
  H           35.741102       10.689171       22.630861
  H           36.905845       12.026261       22.451520
  H           38.141823       10.881959       20.743940
  H           36.496037       10.309450       20.367482
  O           14.622570       31.973653       21.102716
  C           14.352896       30.991097       20.431329
  O           13.594258       31.005980       19.299584
  C           13.317736       29.665932       18.975691
  C           14.463476       28.930331       19.596634
  O           14.771267       29.722729       20.734162
  H           12.356157       29.392642       19.424665
  H           13.266111       29.515876       17.897119
  H           15.336283       28.898378       18.939225
  H           14.203652       27.909033       19.896536
  O           12.638902       13.240449        7.343347
  C           11.632958       13.699544        7.859301
  O           10.460959       13.022758        8.017346
  C            9.496027       13.964678        8.415834
  C           10.320162       15.029023        9.069571
  O           11.540284       14.976696        8.344888
  H            8.978979       14.330109        7.521395
  H            8.767060       13.528388        9.099031
  H           10.521360       14.805773       10.120608
  H            9.869419       16.024906        8.995092
  O           39.199571       30.269445       29.416758
  C           39.104907       29.240401       30.065609
  O           38.746367       29.178342       31.378696
  C           38.996205       27.863062       31.808487
  C           38.901597       27.074901       30.539924
  O           39.360669       27.993859       29.559430
  H           40.000115       27.826809       32.246380
  H           38.268072       27.538393       32.552068
  H           37.871543       26.792280       30.307301
  H           39.526552       26.174977       30.548091
  O           35.213212        6.480659       27.279077
  C           34.034692        6.499360       27.594733
  O           33.534281        6.011221       28.764310
  C           32.134271        5.995742       28.634574
  C           31.882266        7.066904       27.620421
  O           33.041188        7.008969       26.801797
  H           31.830706        5.005303       28.277113
  H           31.640610        6.201594       29.584534
  H           31.818746        8.058295       28.076611
  H           30.979911        6.888310       27.025140
  O            1.457472       12.448518       10.012495
  C            1.965090       13.229297        9.224074
  O            1.539051       14.505550        9.008968
  C            2.215654       14.975308        7.869391
  C            3.464048       14.150187        7.859967
  O            3.037608       12.921473        8.430065
  H            1.586899       14.787746        6.991674
  H            2.426232       16.042701        7.938886
  H            4.246660       14.581363        8.489733
  H            3.863169       13.990159        6.852200
  O           33.719189       30.813900       19.415804
  C           34.824808       30.580724       19.876387
  O           35.731785       31.529656       20.241789
  C           36.946263       30.862860       20.481637
  C           36.501122       29.480792       20.843766
  O           35.314925       29.318278       20.080139
  H           37.538731       30.880506       19.559916
  H           37.513656       31.337461       21.282461
  H           36.255118       29.392955       21.905258
  H           37.236943       28.712298       20.582070
  O           25.448389       16.413322        3.633722
  C           26.422190       17.148087        3.606659
  O           26.949729       17.700017        2.478087
  C           28.186219       18.263965        2.838858
  C           28.009609       18.547538        4.297555
  O           27.132999       17.512850        4.718953
  H           28.972145       17.523588        2.651604
  H           28.398758       19.166298        2.265167
  H           27.529312       19.513660        4.473402
  H           28.950454       18.508293        4.857707
  O           34.137933       17.312452       10.357812
  C           35.148375       17.958023       10.131658
  O           35.248268       18.946123        9.198770
  C           36.614002       19.258644        9.079601
  C           37.164115       18.859896       10.412934
  O           36.337044       17.766928       10.784383
  H           37.035155       18.663541        8.261443
  H           36.766859       20.317370        8.869283
  H           37.057648       19.654582       11.155995
  H           38.214362       18.551057       10.367106
  O           18.817306       24.579822       21.661349
  C           17.754743       24.149753       22.079559
  O           16.542722       24.738266       21.876437
  C           15.624410       24.081834       22.714828
  C           16.244729       22.732020       22.895396
  O           17.635801       23.009700       22.828980
  H           15.557139       24.637667       23.656860
  H           14.635233       24.024633       22.260121
  H           15.980282       22.046388       22.086090
  H           15.988982       22.268847       23.854856
  O           26.642160       19.542385       40.001438
  C           26.670214       18.416588       39.531658
  O           25.775340       17.927763       38.627859
  C           26.004224       16.543585       38.534252
  C           27.441398       16.416410       38.931439
  O           27.609326       17.476063       39.861780
  H           25.332889       16.033612       39.234350
  H           25.819869       16.173346       37.525571
  H           28.116989       16.574843       38.086764
  H           27.672202       15.452521       39.398503
  O            2.537018       38.104834        9.135664
  C            3.447181       37.301564        9.259197
  O            3.394061       35.998338        8.865011
  C            4.528033       35.362986        9.401233
  C            5.499040       36.490978        9.556725
  O            4.656217       37.601132        9.828398
  H            4.252171       34.916511       10.363242
  H            4.902944       34.583388        8.737781
  H            6.055523       36.684359        8.635893
  H            6.208052       36.334725       10.377327
  O           16.551974        4.025285       16.990123
  C           17.371387        4.764340       17.510949
  O           17.098529        5.644961       18.514271
  C           18.230921        6.466395       18.655811
  C           19.336620        5.600732       18.138650
  O           18.690101        4.818307       17.145461
  H           18.085700        7.364386       18.044727
  H           18.386938        6.759868       19.694095
  H           19.734424        4.936843       18.910664
  H           20.160656        6.175410       17.701375
  O           26.554325       37.059618       39.533606
  C           27.621327       36.890521       38.966319
  O           28.000757       37.518919       37.818386
  C           29.165921       36.874719       37.366168
  C           29.742566       36.307659       38.625265
  O           28.589444       36.026964       39.405086
  H           28.875638       36.094307       36.653713
  H           29.846470       37.572164       36.877372
  H           30.362854       37.033968       39.156975
  H           30.325267       35.395407       38.455688
  O           30.302577       28.995493       28.418130
  C           31.322277       28.334985       28.531443
  O           32.287023       28.547388       29.469926
  C           33.388667       27.750924       29.110585
  C           32.757625       26.646233       28.322649
  O           31.645274       27.285152       27.713504
  H           34.070758       28.357075       28.503763
  H           33.920285       27.381486       29.987739
  H           32.395862       25.838364       28.964113
  H           33.426214       26.227470       27.562303
  O            4.672430       39.951176       37.203727
  C            5.392135       39.137475       36.648014
  O            6.386564       39.449251       35.770229
  C            6.800530       38.243478       35.177064
  C            6.441702       37.223423       36.211535
  O            5.289310       37.783247       36.824062
  H            6.240010       38.105646       34.245549
  H            7.868086       38.250307       34.956211
  H            7.224905       37.109422       36.965589
  H            6.212331       36.241714       35.782425
  F           34.568233       17.563511       27.477909
  P           35.708857       17.818442       28.614081
  F           36.848046       17.903433       27.451358
  F           35.467766       19.426138       28.495387
  F           36.849481       18.073372       29.750253
  F           34.569668       17.733450       29.776804
  F           35.949949       16.210746       28.732775
  F           19.410821       10.912467       25.200346
  P           18.475678       12.205012       24.866078
  F           19.739907       13.193502       25.151584
  F           18.904788       12.109550       23.296476
  F           17.540536       13.497557       24.531811
  F           17.211450       11.216521       24.580573
  F           18.046568       12.300474       26.435681
  F           18.063465       27.569517       19.193057
  P           19.320134       26.859745       18.435491
  F           18.282705       25.957888       17.559537
  F           19.282410       28.017233       17.288452
  F           20.576804       26.149974       17.677924
  F           20.357564       27.761603       19.311444
  F           19.357859       25.702258       19.582530
  F           13.542104       33.096828       22.657846
  P           13.493009       31.724055       23.535333
  F           13.930439       32.558602       24.865403
  F           11.923568       31.999600       23.878597
  F           13.443915       30.351282       24.412820
  F           13.055579       30.889508       22.205263
  F           15.062450       31.448510       23.192069
  F           14.275089        4.192239       18.387310
  P           14.247827        4.177083       20.017011
  F           13.529695        5.640362       20.018606
  F           12.784801        3.459110       19.985860
  F           14.220564        4.161927       21.646713
  F           14.965958        2.713804       20.015416
  F           15.710852        4.895056       20.048162
  F            1.347909        7.326273       36.897274
  P            2.945403        7.083203       36.683195
  F            3.161798        8.685744       36.478414
  F            3.186414        7.255480       38.286047
  F            4.542897        6.840134       36.469115
  F            2.729008        5.480662       36.887976
  F            2.704392        6.910927       35.080343
  F           33.989142        4.763623        7.712450
  P           33.348269        6.250885        7.527429
  F           33.582936        6.151719        5.917461
  F           31.868028        5.591252        7.352302
  F           32.707397        7.738148        7.342408
  F           33.113603        6.350052        9.137397
  F           34.828511        6.910519        7.702557
  F           38.368400        4.081607       36.082358
  P           37.228001        5.206383       35.780251
  F           38.338751        6.383915       35.971444
  F           37.578178        5.134279       34.189944
  F           36.087602        6.331159       35.478144
  F           36.117251        4.028852       35.589058
  F           36.877823        5.278487       37.370558
  F            4.807934       30.843631        7.142880
  P            4.696111       30.929204        8.766787
  F            3.202110       31.566572        8.630322
  F            4.053962       29.431426        8.801495
  F            4.584288       31.014777       10.390693
  F            6.190112       30.291837        8.903251
  F            5.338260       32.426982        8.732078
  F           23.236443       17.214486       16.290093
  P           24.756917       17.682801       15.935496
  F           24.249248       18.235415       14.488502
  F           24.461400       19.143006       16.596836
  F           26.277392       18.151116       15.580899
  F           25.264586       17.130187       17.382489
  F           25.052434       16.222596       15.274156
  F           17.509465       35.633933       30.716272
  P           18.636900       34.646537       31.357239
  F           18.390939       35.316878       32.822519
  F           17.485685       33.536316       31.671905
  F           19.764335       33.659141       31.998207
  F           18.882860       33.976196       29.891959
  F           19.788114       35.756758       31.042573
  F            6.212265        6.341156       26.098882
  P            7.426225        5.518871       25.386809
  F            7.908978        4.969949       26.843701
  F            6.451468        4.222942       25.221527
  F            8.640185        4.696586       24.674736
  F            6.943472        6.067793       23.929917
  F            8.400982        6.814800       25.552090
  F            8.766858        3.564752       34.531355
  P            9.550766        2.587462       35.574088
  F            9.116434        3.557588       36.809852
  F            8.189244        1.715304       35.780236
  F           10.334675        1.610171       36.616820
  F            9.985098        1.617336       34.338324
  F           10.912289        3.459620       35.367940
  F           27.248122       26.781133       34.083346
  P           27.957959       26.458847       32.651856
  F           26.635688       25.628975       32.183016
  F           27.321852       27.824257       32.029020
  F           28.667795       26.136562       31.220366
  F           29.280230       27.288719       33.120697
  F           28.594065       25.093437       33.274692
  F           27.786525        4.207381       36.068335
  P           26.186191        4.514994       36.103057
  F           26.419912        5.595724       37.300678
  F           26.389184        5.695797       34.997888
  F           24.585858        4.822607       36.137779
  F           25.952471        3.434263       34.905436
  F           25.983199        3.334191       37.208226
  F           31.357526       32.164341       15.448470
  P           32.177622       33.223365       16.377347
  F           31.830813       32.333414       17.698184
  F           33.542930       32.361183       16.154914
  F           32.997718       34.282388       17.306224
  F           32.524431       34.113316       15.056510
  F           30.812314       34.085546       16.599781
  F           24.963105       35.545332        2.038680
  P           24.443624       36.466510        3.279031
  F           25.946212       36.463218        3.910788
  F           24.803160       37.811248        2.430908
  F           23.924142       37.387688        4.519382
  F           22.941035       36.469803        2.647274
  F           24.084087       35.121772        4.127154
  F           13.881926       35.286827        5.063363
  P           12.990253       36.454847        4.357992
  F           13.929519       37.591479        5.052791
  F           13.980000       36.428468        3.063154
  F           12.098580       37.622866        3.652620
  F           12.050988       35.318214        3.663192
  F           12.000506       36.481225        5.652829
  F           27.914132       34.562798       30.452880
  P           29.254828       35.465372       30.664531
  F           29.552042       35.399390       29.063215
  F           28.376705       36.821066       30.445684
  F           30.595523       36.367946       30.876181
  F           28.957614       35.531355       32.265846
  F           30.132951       34.109678       30.883377
  F           29.315519        3.495652       23.618659
  P           28.335355        2.499731       24.457897
  F           29.371824        1.267223       24.205798
  F           29.123968        2.881784       25.832315
  F           27.355191        1.503811       25.297135
  F           27.298886        3.732240       24.709996
  F           27.546742        2.117679       23.083479
  F           27.155632        3.226378        4.832977
  P           27.140274        3.230121        3.203053
  F           25.876804        4.259850        3.217323
  F           28.169987        4.493666        3.196253
  F           27.124916        3.233864        1.573130
  F           28.403744        2.200393        3.188783
  F           26.110562        1.966576        3.209854
  F           17.664010       29.025350       35.924011
  P           16.377175       29.834260       36.512757
  F           17.012814       29.754556       38.011594
  F           17.149782       31.247133       36.260237
  F           15.090341       30.643170       37.101503
  F           15.741537       29.913964       35.013920
  F           15.604568       28.421386       36.765277
  F           22.140490       12.829980       32.780830
  P           23.573384       12.169560       32.371490
  F           24.266109       13.644335       32.417004
  F           23.925301       11.955586       33.948597
  F           25.006278       11.509140       31.962149
  F           22.880659       10.694786       32.325975
  F           23.221467       12.383534       30.794382
  F            4.682013       24.521886       37.956037
  P            4.453796       24.871532       36.380421
  F            4.052335       26.400508       36.777866
  F            6.017012       25.315244       36.252465
  F            4.225579       25.221178       34.804805
  F            4.855256       23.342556       35.982976
  F            2.890579       24.427820       36.508377
  F           29.537297       25.156879        1.109515
  P           29.510650       26.412005        2.149153
  F           28.218669       27.029554        1.370490
  F           28.517185       25.575231        3.133904
  F           29.484004       27.667131        3.188792
  F           30.802632       25.794456        2.927816
  F           30.504116       27.248779        1.164402
  F           32.587189       28.002859        7.378746
  P           32.368441       26.641335        8.247827
  F           30.998720       27.262521        8.876232
  F           31.512337       25.995362        7.020348
  F           32.149692       25.279811        9.116909
  F           33.738162       26.020149        7.619423
  F           33.224544       27.287308        9.475307
  F           32.370971       33.610390       38.781166
  P           31.361432       32.554074       38.058720
  F           31.037343       33.655282       36.901479
  F           32.599454       31.980980       37.166664
  F           30.351893       31.497758       37.336275
  F           31.685520       31.452865       39.215962
  F           30.123410       33.127168       38.950777
  F           27.011149       19.676468        8.146964
  P           28.319893       20.508179        7.644623
  F           27.557131       20.865580        6.249145
  F           27.717993       21.863694        8.320785
  F           29.628637       21.339889        7.142282
  F           29.082655       20.150778        9.040101
  F           28.921793       19.152663        6.968462
  F            8.840583       28.568948       29.333483
  P            8.535585       28.532161       27.732695
  F            8.578182       30.160968       27.687149
  F           10.136229       28.481805       27.428882
  F            8.230587       28.495375       26.131907
  F            8.492988       26.903354       27.778241
  F            6.934941       28.582517       28.036509
  F           20.829197       13.853702        5.901552
  P           20.900564       12.227262        5.982173
  F           19.409142       12.129580        5.331774
  F           21.554374       12.181972        4.489731
  F           20.971931       10.600822        6.062794
  F           22.391986       12.324945        6.632572
  F           20.246754       12.272552        7.474614
  F            5.093690       22.151022        7.299374
  P            6.316502       22.928010        8.046316
  F            6.959399       23.308846        6.597679
  F            5.451449       24.309369        8.025559
  F            7.539313       23.704998        8.793257
  F            5.673605       22.547174        9.494952
  F            7.181554       21.546651        8.067072
  F           17.618687       37.664285       14.740724
  P           17.663176       38.848279       15.860134
  F           18.639994       39.725182       14.893818
  F           16.359049       39.545488       15.174530
  F           17.707664       40.032273       16.979545
  F           16.686357       37.971376       16.826450
  F           18.967302       38.151070       16.545738
  F           18.396416       26.647782       33.895854
  P           19.403061       26.679774       35.177471
  F           19.267952       25.062003       35.323975
  F           20.677938       26.483065       34.181030
  F           20.409706       26.711767       36.459088
  F           19.538169       28.297545       35.030966
  F           18.128184       26.876483       36.173911
  F           10.313106       14.123600       14.520811
  P           11.187147       14.064078       13.146253
  F            9.871321       13.552176       12.331724
  F           10.785211       15.610465       12.823711
  F           12.061189       14.004556       11.771696
  F           12.502973       14.575980       13.960783
  F           11.589084       12.517691       13.468795
  Li          14.771999        7.651396       12.960995
  Li          24.575453        8.485598       19.123757
  Li           6.511004        7.647619       38.715636
  Li          33.920855       20.725059       16.433737
  Li          13.090190       27.634504       39.142496
  Li           5.687824       32.827246       10.971038
  Li          16.562021       21.211806       39.082685
  Li          16.371506        2.599018       33.451283
  Li          26.352665        3.420546       14.324332
  Li          33.698747       24.692880       37.078533
  Li          34.781728        8.253978       31.587546
  Li          20.237837       24.047133       18.432611
  Li          20.436253       23.259557       34.849635
  Li          13.950040       17.329575       23.537872
  Li          31.829923        2.773430       28.748112
  Li          27.556940       12.535167        2.873503
  Li          36.825487       12.140850       19.193889
  Li          10.401953       24.409595       38.115592
  Li          38.551254       28.820881       22.455194
  Li          22.912555       13.547979       24.348565
  Li          28.885073       27.468494       17.044583
  Li          28.103293       38.032963       14.232119
  Li          16.015159       21.694595        6.623783
  Li           6.720172       17.774689       18.776920
  Li          31.617737        9.008218        9.917275
  Li          20.109489        4.535461       22.374942
  Li          16.964668       39.929216       19.046417
  Li          26.146525       17.123459       13.576382
  Li          19.113116       36.010591       28.347965
  Li          28.945816       33.071781       36.549573
  Li           6.045673        1.050535       38.551087
  Li           8.967783       33.951052       10.668435
  Li          31.514641       18.158385       19.955180
  Li          31.933007        6.875801        1.170081
