25
BMIM
C       -3.620000    -0.330000    -0.680000
C       -3.010000    -0.140000     0.700000
C       -1.500000    -0.320000     0.730000
C       -0.750000     0.740000    -0.080000
N        0.700000     0.580000     0.070000
C        1.510000     1.230000     1.000000
C        2.780000     0.790000     0.790000
N        2.730000    -0.120000    -0.250000
C        3.860000    -0.850000    -0.810000
C        1.460000    -0.240000    -0.680000
H       -3.350000    -1.300000    -1.100000
H       -4.710000    -0.280000    -0.620000
H       -3.290000     0.450000    -1.380000
H       -3.280000     0.860000     1.080000
H       -3.460000    -0.870000     1.380000
H       -1.160000    -0.280000     1.770000
H       -1.230000    -1.320000     0.360000
H       -1.020000     1.750000     0.250000
H       -0.980000     0.670000    -1.150000
H        1.060000     1.930000     1.680000
H        3.730000     1.000000     1.250000
H        4.610000    -0.130000    -1.160000
H        4.290000    -1.480000    -0.030000
H        3.530000    -1.470000    -1.640000
H        1.110000    -0.880000    -1.480000
