12
DMC
C        2.300000    -0.220000     0.270000
O        1.050000     0.300000     0.740000
C       -0.000000     0.000000    -0.060000
O        0.050000    -0.640000    -1.100000
O       -1.120000     0.540000     0.490000
C       -2.300000     0.300000    -0.260000
H        2.550000     0.200000    -0.710000
H        3.080000     0.070000     0.980000
H        2.270000    -1.310000     0.220000
H       -3.140000     0.780000     0.260000
H       -2.220000     0.750000    -1.260000
H       -2.500000    -0.770000    -0.330000
