        4556
  Built with Packmol                                             
  O           12.096793        9.268256        4.994529
  C           11.262910        9.139015        5.875912
  O           10.746315       10.160804        6.614612
  C           10.022007        9.576933        7.668923
  C            9.645954        8.239229        7.113466
  O           10.735174        7.933531        6.255126
  H           10.683004        9.494687        8.539107
  H            9.149589       10.173768        7.935709
  H            8.728287        8.283224        6.521054
  H            9.536364        7.470695        7.886670
  O           16.304017        3.332316       13.228924
  C           15.603546        4.061443       13.912015
  O           14.328201        4.428354       13.603028
  C           13.969763        5.452251       14.497598
  C           14.847231        5.183559       15.679653
  O           16.013002        4.626448       15.090410
  H           14.190964        6.416631       14.026490
  H           12.910343        5.411118       14.751441
  H           14.407413        4.449419       16.359798
  H           15.095027        6.090044       16.243021
  O           28.301678       16.866620       24.415521
  C           28.312627       15.801167       25.010154
  O           29.323770       14.889477       24.955273
  C           28.848385       13.715212       25.565364
  C           27.795171       14.227251       26.497006
  O           27.292636       15.366296       25.813898
  H           28.434080       13.064203       24.787265
  H           29.643200       13.185670       26.091057
  H           28.213319       14.543995       27.456081
  H           26.994665       13.501295       26.677777
  O           33.407311       13.052701       16.046583
  C           34.461318       13.616707       15.801906
  O           34.800694       14.859276       16.246255
  C           35.963008       15.238043       15.551516
  C           36.581289       13.922627       15.195410
  O           35.453596       13.075867       15.028358
  H           35.665700       15.810844       14.665849
  H           36.619802       15.849302       16.170778
  H           37.204471       13.529207       16.002791
  H           37.172932       13.963738       14.274125
  O           21.912409       13.764281        9.945813
  C           21.752006       12.562140        9.811546
  O           20.613357       11.887743       10.135996
  C           20.917364       10.516603       10.067775
  C           22.054729       10.475948        9.096101
  O           22.710297       11.715290        9.321624
  H           21.212258       10.177301       11.067181
  H           20.062233        9.932072        9.727813
  H           21.708995       10.440358        8.059665
  H           22.739336        9.639191        9.274008
  O           28.514811       30.149903       15.125997
  C           28.995184       31.045715       15.801026
  O           30.296223       31.106729       16.201244
  C           30.383505       32.140718       17.150111
  C           29.239480       33.030881       16.778335
  O           28.280664       32.118523       16.263675
  H           30.263804       31.705253       18.148580
  H           31.342726       32.655911       17.095596
  H           29.510100       33.742137       15.993555
  H           28.829665       33.580020       17.633319
  O           33.353107       12.516714       23.374214
  C           33.345414       13.314770       24.297224
  O           32.302678       13.504436       25.153569
  C           32.591113       14.661778       25.898193
  C           34.085875       14.719968       25.856980
  O           34.391890       14.146713       24.594311
  H           32.127868       15.519668       25.397864
  H           32.208201       14.590036       26.916393
  H           34.542815       14.112883       26.642890
  H           34.475906       15.741825       25.921660
  O           18.753200        5.784875        5.362666
  C           17.664751        6.325594        5.471304
  O           17.416647        7.430457        6.229144
  C           16.019920        7.583071        6.283574
  C           15.562377        6.908464        5.028600
  O           16.528292        5.883254        4.848172
  H           15.651508        7.079204        7.184291
  H           15.731729        8.633954        6.316583
  H           15.591854        7.580042        4.166559
  H           14.557281        6.480905        5.115062
  O            4.571464       39.412421       19.401231
  C            3.878950       38.411982       19.309326
  O            4.350100       37.133792       19.338426
  C            3.285779       36.297506       18.957707
  C            2.080527       37.100224       19.335079
  O            2.518936       38.438280       19.150676
  H            3.349474       36.126378       17.877171
  H            3.322895       35.339094       19.475945
  H            1.803627       36.958332       20.383026
  H            1.210814       36.888478       18.703207
  O           34.360329       34.719026       12.901503
  C           35.202427       34.532448       13.764614
  O           36.013423       33.439949       13.837636
  C           36.650206       33.487095       15.090386
  C           36.636723       34.947710       15.415690
  O           35.441721       35.400559       14.796419
  H           36.060028       32.897586       15.801069
  H           37.661873       33.083737       15.042096
  H           37.486990       35.474936       14.975146
  H           36.612045       35.145566       16.493068
  O           15.635003       35.411488       13.849302
  C           16.708520       35.014620       14.272337
  O           17.151486       33.728877       14.187231
  C           18.296420       33.636902       14.998260
  C           18.807742       35.043224       15.012706
  O           17.620060       35.814666       14.908356
  H           17.989181       33.296170       15.993452
  H           19.024206       32.936704       14.587711
  H           19.447068       35.257136       14.152180
  H           19.349820       35.291634       15.931914
  O           32.266786        8.966376       24.196563
  C           32.884097        9.621402       25.020437
  O           34.139362       10.118768       24.837307
  C           34.579759       10.586502       26.088057
  C           33.298960       10.897403       26.796785
  O           32.398041        9.939563       26.260608
  H           35.142310        9.784409       26.579059
  H           35.219291       11.463521       25.986390
  H           32.932280       11.900203       26.562399
  H           33.375028       10.789231       27.884449
  O            9.029164       18.722009        8.719123
  C            8.522000       19.831768        8.708209
  O            7.211638       20.091430        8.976770
  C            6.979259       21.431310        8.619247
  C            8.335950       22.049784        8.746831
  O            9.206417       20.979720        8.409413
  H            6.606947       21.455037        7.588849
  H            6.247348       21.901209        9.276515
  H            8.547121       22.370276        9.770399
  H            8.485032       22.897179        8.068453
  O           26.798331       14.563683       11.733780
  C           25.829273       14.072546       12.289308
  O           25.175553       14.626714       13.348623
  C           24.293553       13.648689       13.841213
  C           24.042535       12.791883       12.640266
  O           25.267385       12.877400       11.926804
  H           24.798360       13.100474       14.644662
  H           23.377460       14.093459       14.230385
  H           23.238320       13.187038       12.014095
  H           23.817451       11.750838       12.897292
  O           40.300001       32.613009        5.430104
  C           39.091639       32.450546        5.381449
  O           38.416753       31.439557        5.997101
  C           37.102449       31.462591        5.497927
  C           36.929993       32.889325        5.080686
  O           38.240496       33.265232        4.683350
  H           37.042177       30.771359        4.649713
  H           36.379268       31.163646        6.256967
  H           36.614528       33.525512        5.911798
  H           36.225436       33.009746        4.250265
  O            8.968534        1.100645       25.885372
  C            9.801106        1.970972       26.080961
  O            9.565889        3.138575       26.742759
  C           10.689653        3.958230       26.536800
  C           11.781654        2.967525       26.280993
  O           11.097716        1.896941       25.646424
  H           10.496982        4.597894       25.668119
  H           10.894722        4.584286       27.405420
  H           12.230874        2.602190       27.208210
  H           12.571504        3.360161       25.631013
  O           20.765480       19.006049       21.199258
  C           20.949796       17.808935       21.347058
  O           21.842221       17.260523       22.218507
  C           21.926532       15.891489       21.909095
  C           20.600538       15.611562       21.274445
  O           20.285198       16.842390       20.640234
  H           22.759835       15.744690       21.212707
  H           22.093425       15.287643       22.801293
  H           19.829355       15.386029       22.015668
  H           20.640710       14.798605       20.540970
  O           29.005457        6.660105       11.147418
  C           29.190537        7.234802       12.207781
  O           28.206478        7.606277       13.073941
  C           28.801433        8.445872       14.032173
  C           30.231540        8.005415       14.018352
  O           30.426420        7.599501       12.671557
  H           28.683291        9.484540       13.703368
  H           28.341228        8.325091       15.013052
  H           30.404521        7.149470       14.675951
  H           30.928617        8.807804       14.284350
  O           33.225620       19.097854       20.161442
  C           32.435330       19.960390       20.508388
  O           32.634048       21.300864       20.366110
  C           31.623802       21.943916       21.102987
  C           30.525528       20.927582       21.119041
  O           31.231826       19.695685       21.105889
  H           32.008950       22.155481       22.106880
  H           31.315893       22.877773       20.632239
  H           29.897595       20.986625       20.226173
  H           29.890154       20.998720       22.008839
  O           38.429619       16.862699       12.040219
  C           38.120472       17.999728       12.357225
  O           37.822864       18.998781       11.479773
  C           37.767304       20.191442       12.222454
  C           37.421937       19.711542       13.597160
  O           38.041103       18.434798       13.653340
  H           38.752837       20.669119       12.184415
  H           37.019812       20.877966       11.824408
  H           36.343904       19.589796       13.731412
  H           37.809707       20.363672       14.387642
  O            6.185732       15.116665       13.491402
  C            5.721849       16.241134       13.395052
  O            4.401076       16.551678       13.520432
  C            4.253548       17.885467       13.100501
  C            5.611448       18.464017       13.347054
  O            6.473131       17.355750       13.132933
  H            3.988277       17.886267       12.037237
  H            3.476088       18.400593       13.665036
  H            5.729373       18.812005       14.376616
  H            5.858168       19.282754       12.662000
  O           37.442521       27.687697       22.000444
  C           36.790199       27.196389       22.907082
  O           35.603861       27.684963       23.365882
  C           35.310799       26.995046       24.555516
  C           36.045244       25.703026       24.380380
  O           37.172136       26.080480       23.603050
  H           35.694754       27.580353       25.398662
  H           34.237917       26.846998       24.680040
  H           35.458392       24.968870       23.822150
  H           36.362874       25.259580       25.330626
  O           35.212802       13.446381        8.917000
  C           36.293119       13.251396        9.449726
  O           36.972986       14.170974       10.190507
  C           38.259901       13.648380       10.409242
  C           38.041166       12.171562       10.306459
  O           36.983039       12.071447        9.364682
  H           38.924758       14.025662        9.624052
  H           38.652085       13.941303       11.383351
  H           37.714757       11.737249       11.255052
  H           38.926199       11.631958        9.951434
  O           37.193474        9.976919       15.198940
  C           35.992782        9.871204       15.388841
  O           35.366643        8.732045       15.797336
  C           33.985109        8.952354       15.656171
  C           33.873184       10.440948       15.760859
  O           35.098966       10.892132       15.203641
  H           33.673894        8.580284       14.673517
  H           33.415372        8.439508       16.431342
  H           33.810163       10.776520       16.799329
  H           33.022628       10.846135       15.201505
  O           32.248493       36.288962       36.385373
  C           32.749738       35.479837       35.621847
  O           33.944999       35.643990       34.988598
  C           34.040888       34.623223       34.026340
  C           33.162627       33.550827       34.590276
  O           32.166577       34.287573       35.284313
  H           33.664316       35.010045       33.072683
  H           35.070390       34.288760       33.896881
  H           33.695367       32.915324       35.302543
  H           32.708325       32.920175       33.818015
  O           28.177913       24.598304       35.947336
  C           27.904682       24.738935       34.766460
  O           28.093285       23.791366       33.805657
  C           27.891447       24.421841       32.565148
  C           26.982084       25.558111       32.913500
  O           27.375907       25.886291       34.237811
  H           28.861788       24.766131       32.189910
  H           27.445233       23.743417       31.837731
  H           25.931297       25.256767       32.919706
  H           27.102971       26.421422       32.249737
  O            9.282202       23.357934       30.928017
  C           10.323141       23.062037       31.491746
  O           10.586051       21.849314       32.054579
  C           11.766714       21.994421       32.804299
  C           12.457635       23.131885       32.120045
  O           11.376896       23.922733       31.647641
  H           11.493103       22.235526       33.837694
  H           12.363492       21.082141       32.794274
  H           13.053010       22.797630       31.266346
  H           13.095121       23.713361       32.795321
  O           20.585122       13.248004       23.394319
  C           19.689405       12.426643       23.503662
  O           19.870074       11.076297       23.526581
  C           18.596178       10.491897       23.413594
  C           17.693764       11.552670       23.961141
  O           18.363652       12.753863       23.607607
  H           18.402022       10.287026       22.354712
  H           18.529800        9.561270       23.977533
  H           17.610207       11.499687       25.049815
  H           16.689637       11.527531       23.523422
  O           12.661483        7.224418       29.849836
  C           12.269202        8.379084       29.807854
  O           10.959978        8.756381       29.794414
  C           10.933877       10.129818       29.494263
  C           12.273388       10.599442       29.968145
  O           13.101436        9.465453       29.756002
  H           10.812271       10.245204       28.411305
  H           10.114166       10.636746       30.003769
  H           12.270397       10.842775       31.033875
  H           12.647924       11.461587       29.405181
  O            2.679407       28.326054       15.861215
  C            2.580820       27.150487       15.549409
  O            1.423799       26.541112       15.166574
  C            1.680656       25.158996       15.136897
  C            3.157433       25.100017       14.902272
  O            3.629984       26.270295       15.553229
  H            1.396476       24.733236       16.105850
  H            1.116530       24.662539       14.347091
  H            3.407628       25.158909       13.839759
  H            3.622996       24.205426       15.330593
  O           28.961514        3.295569       18.899924
  C           29.921678        3.859954       18.401473
  O           29.941717        4.406597       17.153523
  C           31.280797        4.728651       16.870244
  C           31.872318        4.919123       18.231576
  O           31.128016        4.012177       19.031615
  H           31.733444        3.886609       16.334544
  H           31.356777        5.626937       16.257210
  H           31.718749        5.933754       18.608325
  H           32.941039        4.680757       18.270531
  O           19.751159       32.205140       35.960146
  C           19.070711       31.297842       36.410369
  O           17.719600       31.193683       36.268074
  C           17.296649       30.164243       37.127415
  C           18.520553       29.312491       37.253820
  O           19.576985       30.254464       37.138758
  H           17.000706       30.610997       38.083307
  H           16.452071       29.614982       36.710880
  H           18.601916       28.586346       36.440743
  H           18.576888       28.784517       38.212240
  O           14.188338        6.249248       11.669461
  C           13.382360        7.117361       11.962171
  O           13.706436        8.390788       12.322666
  C           12.531681        8.987827       12.813171
  C           11.452304        8.215045       12.122409
  O           12.026680        6.924170       11.979808
  H           12.505204        8.857281       13.900901
  H           12.493492       10.051673       12.578067
  H           11.229797        8.616461       11.130262
  H           10.524977        8.162817       12.703646
  O           21.105563       32.933857       24.710365
  C           20.333519       33.787507       24.305234
  O           20.613292       35.119114       24.233477
  C           19.401432       35.776706       23.957668
  C           18.598924       34.719367       23.266716
  O           19.061374       33.521608       23.873441
  H           18.951234       36.085681       24.907803
  H           19.554844       36.655097       23.330457
  H           18.808909       34.678608       22.194688
  H           17.519725       34.835870       23.415906
  O            9.649108        1.216403        6.033680
  C            9.367539        2.399382        5.932789
  O           10.066690        3.305632        5.193534
  C            9.575791        4.577892        5.536275
  C            8.183834        4.283527        6.000179
  O            8.304602        2.986615        6.565895
  H           10.202833        4.986777        6.336606
  H            9.592380        5.257702        4.684170
  H            7.473472        4.244344        5.170208
  H            7.822073        4.998450        6.747517
  O           27.472012       38.096853       18.796294
  C           26.698033       37.913403       17.870981
  O           25.351133       38.110186       17.932119
  C           24.804070       37.557150       16.760807
  C           25.945580       37.626309       15.795628
  O           27.080942       37.468132       16.633801
  H           24.501679       36.525557       16.973589
  H           23.937263       38.121851       16.416918
  H           26.004417       38.597501       15.297306
  H           25.912660       36.836244       15.037200
  O           27.312322       17.837575       34.828489
  C           27.087436       18.831134       34.156798
  O           26.190057       18.892027       33.133274
  C           26.409057       20.112500       32.470263
  C           27.011328       20.968671       33.539675
  O           27.722538       20.031331       34.334768
  H           27.102012       19.935849       31.639897
  H           25.480495       20.530091       32.080532
  H           26.249605       21.452381       34.156767
  H           27.689795       21.732707       33.144161
  O           11.262368        0.999988       13.414142
  C           11.616276        1.797827       12.561439
  O           11.172341        1.808451       11.273258
  C           11.992883        2.704845       10.565947
  C           12.472141        3.633319       11.637230
  O           12.527645        2.795802       12.782692
  H           12.812466        2.137904       10.110137
  H           11.438704        3.225856        9.784966
  H           11.764409        4.445104       11.824635
  H           13.458202        4.060374       11.423199
  O            5.752634       13.685811       25.578342
  C            4.947803       12.841663       25.936896
  O            3.594666       12.961597       25.830903
  C            3.032003       11.906678       26.570942
  C            4.111827       10.870901       26.547586
  O            5.298863       11.649556       26.512343
  H            2.823981       12.267371       27.584612
  H            2.106213       11.548822       26.119997
  H            4.067097       10.250492       25.648647
  H            4.101577       10.222598       27.430818
  O           24.437338       12.777799       20.630850
  C           25.504586       12.205761       20.781362
  O           26.451994       12.058228       19.813245
  C           27.399469       11.143138       20.305180
  C           27.267516       11.292606       21.788301
  O           25.894993       11.616878       21.954520
  H           27.122233       10.139906       19.962302
  H           28.404484       11.377792       19.953922
  H           27.876043       12.114533       22.174476
  H           27.516362       10.375795       22.334225
  O           16.768338       37.954377       20.743771
  C           15.937807       37.195173       21.215711
  O           14.983560       37.550777       22.121005
  C           14.402268       36.359745       22.590731
  C           14.632822       35.408137       21.459056
  O           15.858317       35.863800       20.904860
  H           14.926813       36.055029       23.503365
  H           13.342729       36.489964       22.811909
  H           13.851223       35.477334       20.697928
  H           14.721377       34.366619       21.787536
  O           13.446552       33.766938       23.588273
  C           14.434787       33.054350       23.521117
  O           14.476546       31.836909       22.910629
  C           15.700718       31.243563       23.266221
  C           16.569841       32.425388       23.561712
  O           15.647838       33.379951       24.067002
  H           15.537600       30.616353       24.149906
  H           16.098960       30.629336       22.458366
  H           17.038383       32.827054       22.659418
  H           17.347260       32.209676       24.303054
  O           24.702912       31.343546       27.617403
  C           23.573839       31.806235       27.621021
  O           22.441206       31.093124       27.876393
  C           21.354078       31.919735       27.541778
  C           21.921122       33.295519       27.700137
  O           23.286957       33.118465       27.354091
  H           21.062980       31.706791       26.506975
  H           20.500846       31.746325       28.197845
  H           21.859204       33.649439       28.732565
  H           21.448099       34.031454       27.040478
  O           31.648169       16.773789       28.076420
  C           32.409042       17.488224       28.708523
  O           33.463229       18.166962       28.175038
  C           34.220046       18.658719       29.253233
  C           33.207974       18.761170       30.350782
  O           32.312870       17.698203       30.058397
  H           35.008935       17.933238       29.481777
  H           34.674468       19.621563       29.018859
  H           32.659873       19.706418       30.317746
  H           33.644343       18.635080       31.347870
  O           17.694392       38.728764       15.666305
  C           18.214868       38.448210       14.598928
  O           17.791799       38.898400       13.384456
  C           18.487379       38.160440       12.410452
  C           19.736233       37.755650       13.128721
  O           19.300891       37.623329       14.473923
  H           17.873726       37.298317       12.125718
  H           18.696125       38.760906       11.524808
  H           20.507789       38.528481       13.079399
  H           20.152499       36.810410       12.763009
  O           10.699029       13.799002       20.694336
  C           11.157611       13.628856       21.812215
  O           11.774679       14.590131       22.555033
  C           12.368225       13.940469       23.651728
  C           11.524950       12.714177       23.808242
  O           11.124559       12.431168       22.475503
  H           13.405656       13.701086       23.392240
  H           12.356518       14.566765       24.543981
  H           10.634788       12.901911       24.414349
  H           12.075770       11.867967       24.233712
  O           27.794873       21.582635       10.005284
  C           27.598370       20.480437        9.520054
  O           27.097104       19.409794       10.197591
  C           27.257937       18.288036        9.365189
  C           27.277904       18.890313        7.995421
  O           27.869223       20.162463        8.215819
  H           28.206540       17.801687        9.619191
  H           26.443434       17.574429        9.491085
  H           26.271120       19.031336        7.593552
  H           27.870200       18.307945        7.280906
  O            0.979983       25.323807       18.181623
  C            1.448620       24.783606       19.170290
  O            2.232899       25.402047       20.097133
  C            2.760629       24.394150       20.923417
  C            1.746053       23.300664       20.803727
  O            1.257485       23.463436       19.480320
  H            3.738754       24.098696       20.527339
  H            2.878307       24.738086       21.951211
  H            0.918420       23.428979       21.506263
  H            2.176395       22.301781       20.936156
  O           10.245548       24.236455       10.570562
  C           11.260626       24.438372       11.216894
  O           12.496634       24.643222       10.681243
  C           13.416393       24.586907       11.743303
  C           12.583889       24.973428       12.925224
  O           11.298219       24.475280       12.585369
  H           13.795078       23.561367       11.819238
  H           14.253050       25.268038       11.586565
  H           12.523476       26.057922       13.048605
  H           12.936255       24.525765       13.861138
  O           26.567776       33.126141       28.858761
  C           25.636168       32.542394       29.388144
  O           24.337196       32.951846       29.347878
  C           23.630736       32.160259       30.270594
  C           24.453879       30.912300       30.337189
  O           25.772776       31.388789       30.113426
  H           23.600689       32.689943       31.229464
  H           22.611685       31.965833       29.935579
  H           24.192722       30.204769       29.545863
  H           24.385582       30.406308       31.306626
  O           35.458018        2.109088        4.601773
  C           36.316481        2.250895        5.457245
  O           37.655670        2.114255        5.246289
  C           38.269929        2.109773        6.511108
  C           37.298885        2.873895        7.355258
  O           36.046739        2.558779        6.764130
  H           38.377874        1.069960        6.839797
  H           39.252520        2.581122        6.482050
  H           37.459880        3.953299        7.292281
  H           37.316105        2.570226        8.407869
  O           35.250556       19.094060       21.298906
  C           36.432120       19.088845       20.994309
  O           37.212959       20.200225       20.886018
  C           38.417308       19.795982       20.283332
  C           38.502602       18.347437       20.649173
  O           37.139670       17.952578       20.704879
  H           38.330669       19.946955       19.201388
  H           39.266091       20.367805       20.658944
  H           38.956326       18.197702       21.632389
  H           39.047326       17.750883       19.908971
  O           30.045059       32.542595       24.224556
  C           28.828484       32.450546       24.243803
  O           28.134068       31.284526       24.122207
  C           26.782767       31.630568       23.945175
  C           26.694177       32.972382       24.601748
  O           27.985129       33.520916       24.380041
  H           26.575962       31.679479       22.870122
  H           26.117458       30.900185       24.406050
  H           26.522095       32.892784       25.678340
  H           25.921801       33.613276       24.162214
  O           15.640965        3.502208       32.847348
  C           16.710060        4.090371       32.847647
  O           17.927428        3.492504       32.716613
  C           18.895518        4.467797       33.014451
  C           18.188904        5.747091       32.692731
  O           16.833964        5.446443       32.993309
  H           19.150022        4.389574       34.077469
  H           19.798150        4.332935       32.418155
  H           18.268877        6.005895       31.633663
  H           18.539521        6.592395       33.295249
  O           24.333401       37.335359       22.125814
  C           25.223656       36.710485       21.572750
  O           26.259777       37.271991       20.888818
  C           26.910622       36.229608       20.205490
  C           26.582440       35.030176       21.037993
  O           25.296959       35.343089       21.553962
  H           26.490306       36.162226       19.195691
  H           27.984625       36.403604       20.136620
  H           27.278874       34.904971       21.871242
  H           26.549502       34.102144       20.456468
  O           35.443839       16.902928        4.168036
  C           34.798536       17.843645        3.734982
  O           34.809443       19.101678        4.258274
  C           33.763533       19.809952        3.640601
  C           33.603883       19.096149        2.335075
  O           33.956388       17.759051        2.658353
  H           32.870732       19.728289        4.270789
  H           34.014626       20.862525        3.508152
  H           34.293446       19.471319        1.574320
  H           32.581042       19.142092        1.944967
  O           14.702808        5.120598        8.581655
  C           13.984027        4.399846        7.908772
  O           14.368455        3.766024        6.765495
  C           13.202373        3.250553        6.172500
  C           12.281384        3.083306        7.340064
  O           12.673967        4.136201        8.208332
  H           12.828137        3.984382        5.449767
  H           13.395422        2.307902        5.660014
  H           12.432407        2.127878        7.849327
  H           11.224448        3.180938        7.068304
  O           23.904653       36.336677       11.457871
  C           23.816062       36.176631       10.251456
  O           22.758594       36.573274        9.489199
  C           22.928890       35.991701        8.220391
  C           24.410369       35.796327        8.140090
  O           24.773674       35.558609        9.492162
  H           22.382683       35.041915        8.198837
  H           22.553911       36.639737        7.427964
  H           24.924872       36.693684        7.786482
  H           24.696092       34.947657        7.508726
  O           36.944161       22.216168       13.576083
  C           36.045761       22.981095       13.886990
  O           34.876406       22.608733       14.479068
  C           34.025539       23.727549       14.441975
  C           34.985685       24.874006       14.385816
  O           36.086070       24.332650       13.669794
  H           33.404932       23.660725       13.541263
  H           33.380783       23.771046       15.319983
  H           35.323341       25.176644       15.380501
  H           34.578410       25.747644       13.864870
  O            2.182570       19.432952       12.121684
  C            2.219398       20.124056       13.126632
  O            1.126818       20.532252       13.831078
  C            1.571823       21.497099       14.752024
  C            3.010065       21.132575       14.946917
  O            3.377099       20.598956       13.683138
  H            1.451853       22.488204       14.300121
  H            1.005190       21.455616       15.682457
  H            3.138744       20.360123       15.709648
  H            3.638862       21.993508       15.199714
  O           21.046756       30.708805        8.622396
  C           22.156820       31.164063        8.844655
  O           22.557754       32.427265        8.528156
  C           23.950350       32.473057        8.717048
  C           24.183487       31.400955        9.734714
  O           23.166530       30.454959        9.438924
  H           24.436881       32.251005        7.760554
  H           24.276189       33.452842        9.066833
  H           24.043352       31.765675       10.755665
  H           25.174462       30.940964        9.651788
  O           18.322272        4.987673       22.713854
  C           19.373225        4.371610       22.783600
  O           19.484809        3.014547       22.733322
  C           20.807241        2.699957       23.092916
  C           21.556641        3.941654       22.724151
  O           20.597137        4.966960       22.935578
  H           20.835241        2.502214       24.170420
  H           21.171310        1.823032       22.557234
  H           21.854367        3.945121       21.672320
  H           22.442381        4.107452       23.347429
  O           18.481964       20.670366        7.842686
  C           19.625190       20.827952        7.446329
  O           19.996188       20.867563        6.135836
  C           21.400942       20.813233        6.107304
  C           21.782796       21.376041        7.440283
  O           20.705525       20.976419        8.274783
  H           21.704650       19.766221        5.995820
  H           21.808662       21.395444        5.280687
  H           21.834983       22.467861        7.425945
  H           22.731276       20.977259        7.816926
  O           18.175279       17.557753       14.317684
  C           18.713804       18.602177       14.646423
  O           19.581587       19.308801       13.869097
  C           20.157761       20.293174       14.691370
  C           19.118295       20.493232       15.749145
  O           18.526134       19.207333       15.860534
  H           21.095092       19.898260       15.099235
  H           20.364828       21.208742       14.136972
  H           18.353106       21.211423       15.443061
  H           19.540913       20.808066       16.709757
  O           29.986171       32.080999       26.580566
  C           30.655020       32.388543       27.553684
  O           30.146351       32.761386       28.761510
  C           31.218793       33.265949       29.518071
  C           32.402805       32.573252       28.920003
  O           32.024281       32.412471       27.560786
  H           31.259172       34.352277       29.379649
  H           31.101866       33.043136       30.578818
  H           32.568631       31.587120       29.361642
  H           33.325143       33.159648       28.997026
  O           14.387145       39.289316       12.728322
  C           14.999685       39.243275       11.674010
  O           15.716157       40.274177       11.144379
  C           16.052083       39.905079        9.829837
  C           16.038922       38.409901        9.890425
  O           15.041155       38.139716       10.864110
  H           15.286276       40.300326        9.152917
  H           17.026305       40.298373        9.538787
  H           16.992868       38.004034       10.237207
  H           15.779319       37.945464        8.932612
  O           39.362675       27.373263       17.439259
  C           38.412409       28.126672       17.574424
  O           38.317006       29.096082       18.527179
  C           36.990926       29.563029       18.503274
  C           36.558373       29.264719       17.102092
  O           37.293977       28.092180       16.784855
  H           36.412624       29.001003       19.245294
  H           36.935476       30.626784       18.735332
  H           36.840020       30.059807       16.406743
  H           35.481772       29.079713       17.017218
  O           12.009906       28.662569       12.929991
  C           11.751562       29.848158       13.058589
  O           12.598969       30.867972       12.744772
  C           12.031771       32.044861       13.264693
  C           10.571796       31.719358       13.308519
  O           10.564911       30.320478       13.552829
  H           12.449004       32.218451       14.263034
  H           12.244262       32.906700       12.631779
  H           10.077923       31.915597       12.353229
  H           10.038540       32.252613       14.103363
  O           23.976627       13.561490        1.575215
  C           25.192817       13.606386        1.663344
  O           25.894869       14.625814        2.232983
  C           27.248403       14.417698        1.914024
  C           27.316008       12.938220        1.699606
  O           26.028182       12.632091        1.185418
  H           27.479808       14.980690        1.002766
  H           27.906009       14.749307        2.717821
  H           27.463482       12.393391        2.635775
  H           28.095579       12.644539        0.987904
  O           21.685813       15.937799        1.876135
  C           21.534168       15.043259        2.692041
  O           21.974397       15.082454        3.980940
  C           21.825878       13.785263        4.502800
  C           20.721111       13.215830        3.669353
  O           20.903658       13.859161        2.416595
  H           22.770237       13.246598        4.365223
  H           21.575103       13.805392        5.563558
  H           19.734363       13.475521        4.061639
  H           20.786962       12.127846        3.557748
  O           26.345329       23.857480       23.253587
  C           26.549432       23.300834       22.187104
  O           25.940115       23.623045       21.011726
  C           26.255661       22.604217       20.095472
  C           27.549049       22.069361       20.625073
  O           27.420417       22.256218       22.026907
  H           25.455248       21.856142       20.120457
  H           26.353152       22.992184       19.081334
  H           28.408306       22.642844       20.267590
  H           27.702341       21.010392       20.389306
  O            8.650648        6.389695       26.234968
  C            7.919763        5.520487       25.788668
  O            8.340614        4.305768       25.337067
  C            7.245085        3.709495       24.687933
  C            6.071469        4.359520       25.350875
  O            6.562073        5.653729       25.668569
  H            7.303818        3.947998       23.619960
  H            7.243916        2.626696       24.814603
  H            5.787529        3.850346       26.275602
  H            5.195187        4.428758       24.696782
  O           28.324000       24.298239       38.389921
  C           28.065813       23.245283       37.829991
  O           28.992115       22.333121       37.421915
  C           28.318167       21.400068       36.614261
  C           26.910479       21.481684       37.115411
  O           26.795371       22.837645       37.521268
  H           28.406517       21.718936       35.569551
  H           28.737554       20.399465       36.721078
  H           26.744421       20.836184       37.981871
  H           26.168041       21.244985       36.345177
  O           29.120568       22.769405        1.119259
  C           28.078350       22.843834        1.749451
  O           27.992992       23.097379        3.085501
  C           26.660281       22.855196        3.462767
  C           25.908244       23.076215        2.188016
  O           26.838305       22.668866        1.195216
  H           26.583239       21.820955        3.816759
  H           26.338078       23.530999        4.255216
  H           25.662127       24.130004        2.033238
  H           24.990423       22.481186        2.124413
  O           25.717053       32.031337        3.668265
  C           25.236736       31.200499        4.421860
  O           25.286113       31.262567        5.782121
  C           24.849071       30.015980        6.263905
  C           23.976899       29.517773        5.154624
  O           24.585159       30.073064        3.997787
  H           25.726558       29.378585        6.420886
  H           24.305570       30.116693        7.203567
  H           22.954204       29.895581        5.234349
  H           23.950514       28.424344        5.089687
  O            2.318346       24.172549       32.980584
  C            2.987881       24.232028       31.962210
  O            4.139888       23.537128       31.746354
  C            4.722959       24.065092       30.580857
  C            3.546039       24.621196       29.842610
  O            2.675069       25.023791       30.889476
  H            5.436216       24.844086       30.872974
  H            5.244168       23.296988       30.009143
  H            3.045196       23.862224       29.235883
  H            3.804908       25.474692       29.206190
  O           26.102286       26.755572        3.223493
  C           25.765132       26.568008        4.381097
  O           25.023780       25.509997        4.814238
  C           24.647742       25.790274        6.139809
  C           25.725101       26.720546        6.601644
  O           26.079780       27.411720        5.412914
  H           23.662414       26.269693        6.126086
  H           24.597718       24.883744        6.743299
  H           26.600705       26.182758        6.974608
  H           25.382932       27.423453        7.369330
  O           15.033364       36.286543       36.667597
  C           15.618381       36.893770       35.785593
  O           16.422681       37.975099       35.986661
  C           16.695775       38.521978       34.720389
  C           16.536707       37.345961       33.808753
  O           15.535764       36.574443       34.456419
  H           15.959929       39.308109       34.516850
  H           17.698297       38.947830       34.674563
  H           17.452467       36.753092       33.738831
  H           16.214625       37.627442       32.800025
  O           37.491771        5.614412       26.137076
  C           37.910780        6.757154       26.050643
  O           37.127980        7.870819       25.990857
  C           37.970052        8.944022       25.649900
  C           39.306578        8.488747       26.145702
  O           39.240536        7.078856       25.989346
  H           37.950509        9.066958       24.561137
  H           37.648437        9.872549       26.122026
  H           39.454180        8.722368       27.203358
  H           40.140549        8.902508       25.567953
  O            3.021663        8.973343        2.030903
  C            3.175831       10.052581        2.578970
  O            2.194620       10.747015        3.220520
  C            2.709618       12.027465        3.489453
  C            4.186068       11.788603        3.538839
  O            4.367608       10.726329        2.614059
  H            2.423840       12.694904        2.668627
  H            2.323886       12.426548        4.427773
  H            4.516470       11.459318        4.527477
  H            4.771238       12.665212        3.239451
  O           14.760689       36.087237        4.516669
  C           14.129736       36.099569        5.561010
  O           14.037494       35.051746        6.427127
  C           13.036839       35.379187        7.359099
  C           13.043542       36.875542        7.342511
  O           13.410197       37.177237        6.004175
  H           12.086036       34.963926        7.006349
  H           13.260508       34.975797        8.346899
  H           13.795115       37.290873        8.019001
  H           12.066784       37.310150        7.582425
  O           21.274724       38.392064        6.936351
  C           21.196430       38.641027        5.744383
  O           20.150685       39.281047        5.149917
  C           20.327537       39.149494        3.761207
  C           21.807653       38.972461        3.629611
  O           22.155106       38.296420        4.829130
  H           19.771841       38.267407        3.423531
  H           19.967092       40.027874        3.225458
  H           22.334820       39.929512        3.595714
  H           22.090872       38.376613        2.754824
  O           16.449036        5.362188       23.809264
  C           15.583367        6.222137       23.811175
  O           15.793472        7.538749       23.530123
  C           14.616510        8.223872       23.880075
  C           13.566838        7.163875       23.761783
  O           14.269235        5.980173       24.111194
  H           14.722224        8.591278       24.907080
  H           14.429509        9.066818       23.214514
  H           13.193939        7.066832       22.738783
  H           12.719637        7.323782       24.437935
  O           39.899840       31.259971       27.140187
  C           39.043780       31.629221       26.352968
  O           38.189604       30.802186       25.687388
  C           37.544656       31.581505       24.710758
  C           37.613182       32.960808       25.287150
  O           38.830341       32.939943       26.018375
  H           38.105040       31.494646       23.773034
  H           36.518264       31.252254       24.547624
  H           36.788184       33.159969       25.976143
  H           37.636594       33.743685       24.520954
  O            5.005153       26.076630        7.808370
  C            5.230863       26.638497        6.749003
  O            4.375982       27.497139        6.125694
  C            4.892613       27.724665        4.837896
  C            6.356008       27.467673        5.016312
  O            6.383055       26.471376        6.027876
  H            4.426799       27.012638        4.147292
  H            4.689827       28.740290        4.497482
  H            6.888155       28.352649        5.374970
  H            6.840657       27.104067        4.103401
  O            9.665016       35.804939       18.582355
  C            9.812271       35.092986       17.602386
  O           10.789554       34.153897       17.462278
  C           10.767122       33.738454       16.119145
  C            9.355020       34.015732       15.708675
  O            9.012894       35.149825       16.491862
  H           11.489212       34.342244       15.557966
  H           11.026813       32.684263       16.020444
  H            8.683316       33.191939       15.963978
  H            9.256424       34.240168       14.640776
  O            5.666188       13.094644       14.435422
  C            4.456925       13.177053       14.576112
  O            3.587897       12.133046       14.469154
  C            2.292715       12.680096       14.450701
  C            2.468297       13.975501       15.179053
  O            3.799595       14.346296       14.852314
  H            1.994074       12.827504       13.406678
  H            1.572824       12.024505       14.941063
  H            2.389603       13.852052       16.262366
  H            1.761892       14.747621       14.854519
  O           29.919857        1.602236       25.480998
  C           29.181059        1.758765       26.439422
  O           28.023112        1.072157       26.649960
  C           27.356240        1.711496       27.709973
  C           28.474353        2.361938       28.462402
  O           29.411959        2.665042       27.439845
  H           26.657976        2.443354       27.288414
  H           26.803622        1.000165       28.324076
  H           28.938804        1.679984       29.179496
  H           28.164558        3.273939       28.984687
  O           16.153092        7.213749       14.621866
  C           15.576144        8.029428       15.322365
  O           14.313439        8.491023       15.100766
  C           14.118476        9.579830       15.968862
  C           15.069176        9.288137       17.087113
  O           16.130315        8.607684       16.433227
  H           14.376864       10.500229       15.433137
  H           13.084986        9.641115       16.310391
  H           14.630585        8.624797       17.837192
  H           15.438060       10.193510       17.581807
  O           22.251905       24.655962       31.219040
  C           22.801371       23.840958       31.942059
  O           22.503220       22.512081       31.984359
  C           23.170898       21.979129       33.101170
  C           24.322977       22.917462       33.279059
  O           23.796312       24.156904       32.828496
  H           22.484839       21.996729       33.955520
  H           23.496444       20.954054       32.923006
  H           25.175889       22.644884       32.651969
  H           24.654583       22.994733       34.320485
  O            8.171876       13.982445       11.976172
  C            7.603610       13.779883       10.915539
  O            7.802616       12.690666       10.121434
  C            7.159833       12.953741        8.898846
  C            6.093464       13.929322        9.286789
  O            6.686188       14.635799       10.366681
  H            7.891737       13.390258        8.209882
  H            6.748523       12.045562        8.457784
  H            5.188863       13.429562        9.643072
  H            5.827087       14.616404        8.475949
  O           10.708553       27.134361       28.844167
  C           11.426640       28.119276       28.900670
  O           12.634027       28.238909       28.280586
  C           13.241519       29.400098       28.790185
  C           12.070712       30.225768       29.222480
  O           11.118418       29.247464       29.613195
  H           13.882198       29.114555       29.632145
  H           13.844939       29.902600       28.033960
  H           11.657312       30.815391       28.400018
  H           12.303997       30.893224       30.059488
  O            7.278081       19.730361       18.743100
  C            6.559929       20.702974       18.907967
  O            5.199562       20.663735       18.974769
  C            4.749465       21.994709       18.919811
  C            5.917124       22.763114       19.454158
  O            7.028519       21.983209       19.038046
  H            4.531253       22.243450       17.875104
  H            3.850247       22.139633       19.518897
  H            5.909366       22.816394       20.545992
  H            5.983619       23.778037       19.046716
  O            6.384815       22.462500       16.717196
  C            7.537088       22.106174       16.902130
  O            8.591497       22.948308       17.090888
  C            9.757365       22.165701       17.017559
  C            9.271063       20.806541       17.412015
  O            7.933998       20.795844       16.933746
  H           10.127358       22.191612       15.986378
  H           10.533348       22.537410       17.687024
  H            9.261416       20.672124       18.496837
  H            9.850573       19.996132       16.956048
  O            7.139605       30.849695       18.824157
  C            7.274164       31.953036       19.327579
  O            6.263330       32.843224       19.533441
  C            6.861157       34.063622       19.894455
  C            8.167582       33.632721       20.483503
  O            8.475810       32.457456       19.748419
  H            6.992316       34.666157       18.988558
  H            6.248355       34.615635       20.607375
  H            8.076533       33.375950       21.542172
  H            8.958397       34.381531       20.363518
  O            7.600901        9.173057       33.345345
  C            8.815641        9.088193       33.423470
  O            9.578160        8.185838       32.744558
  C           10.871829        8.250810       33.291638
  C           10.931055        9.641316       33.841534
  O            9.585948        9.890247       34.222742
  H           10.954609        7.489893       34.075891
  H           11.636932        8.072319       32.535821
  H           11.226253       10.371166       33.083130
  H           11.599863        9.731601       34.704694
  O            1.836813        9.369724       38.978098
  C            3.040001        9.558356       39.053308
  O            3.991791        8.606088       38.843830
  C            5.216696        9.153540       39.264549
  C            4.992843       10.625382       39.112987
  O            3.603898       10.764478       39.373915
  H            5.385022        8.864057       40.307988
  H            6.046733        8.796734       38.654445
  H            5.199635       10.970204       38.096456
  H            5.580007       11.222162       39.819806
  O            9.621369       30.694110       36.178352
  C           10.453098       31.356872       36.776578
  O           11.222088       32.331621       36.215224
  C           12.206130       32.670590       37.160666
  C           11.559372       32.305023       38.459691
  O           10.738577       31.201195       38.106904
  H           13.101088       32.071244       36.958838
  H           12.463657       33.728733       37.110536
  H           10.926970       33.109231       38.844811
  H           12.282266       32.017455       39.231202
  O            6.082721       25.370375       28.824826
  C            6.358349       26.332332       29.523086
  O            5.477112       26.985378       30.331512
  C            6.113083       28.163456       30.761362
  C            7.564407       27.810092       30.670844
  O            7.603033       26.900590       29.580929
  H            5.839275       28.974184       30.076781
  H            5.815867       28.433429       31.774908
  H            7.920695       27.301678       31.570608
  H            8.204042       28.677334       30.472708
  O           18.764835       27.651751       32.050977
  C           17.895026       27.693119       32.905741
  O           17.977051       27.098869       34.129153
  C           16.695702       27.168955       34.703899
  C           16.093428       28.361473       34.029683
  O           16.698821       28.340306       32.745296
  H           16.159284       26.243010       34.467720
  H           16.747036       27.288204       35.786324
  H           16.358626       29.295422       34.532086
  H           15.002967       28.298514       33.943474
  O           40.002642       36.908711        8.878449
  C           39.639676       36.854120       10.042139
  O           40.399369       36.389622       11.073501
  C           39.546150       36.261552       12.183778
  C           38.468178       37.257551       11.891609
  O           38.400276       37.245995       10.473210
  H           39.166167       35.234061       12.211609
  H           40.066452       36.477486       13.117137
  H           38.735855       38.263205       12.226284
  H           37.501297       36.981056       12.326570
  O           26.071473       23.608946       28.840492
  C           27.154396       23.049923       28.901076
  O           27.516740       22.157234       29.864618
  C           28.898941       21.941705       29.722608
  C           29.137545       22.252955       28.278450
  O           28.169325       23.255083       28.004790
  H           29.427280       22.632458       30.389405
  H           29.173775       20.917505       29.975554
  H           28.947284       21.389980       27.634963
  H           30.148006       22.629032       28.083425
  O           20.771639       34.310761       20.684874
  C           21.326397       33.240039       20.498603
  O           21.894254       32.477402       21.474576
  C           22.630697       31.468972       20.828185
  C           21.931986       31.338958       19.511257
  O           21.465776       32.657869       19.266876
  H           23.665311       31.812823       20.717547
  H           22.620332       30.537938       21.395255
  H           21.074305       30.663375       19.565782
  H           22.596836       31.009055       18.705255
  O           14.390632       27.234124       36.010325
  C           13.877540       27.822752       36.947956
  O           14.381401       28.946337       37.531291
  C           13.644868       29.159957       38.709843
  C           12.339804       28.490798       38.412464
  O           12.717749       27.422616       37.556459
  H           14.176301       28.683364       39.541311
  H           13.525596       30.222659       38.921831
  H           11.652599       29.150079       37.875717
  H           11.841192       28.108251       39.309985
  O           25.406575       17.833331       28.866457
  C           24.909208       18.928735       29.070461
  O           25.373444       20.102270       28.556749
  C           24.689404       21.136924       29.219079
  C           23.413979       20.476686       29.639529
  O           23.810570       19.131479       29.862540
  H           25.293006       21.458184       30.075442
  H           24.516428       21.989199       28.561655
  H           22.659674       20.498217       28.848605
  H           22.988725       20.909970       30.551627
  O           24.940434       19.183286       10.851825
  C           24.218200       18.208788       10.984609
  O           22.906098       18.157013       10.620866
  C           22.379384       16.970062       11.160142
  C           23.587056       16.094543       11.280120
  O           24.629929       17.024160       11.534733
  H           21.934489       17.200270       12.134808
  H           21.617961       16.537251       10.510980
  H           23.803935       15.563404       10.349607
  H           23.509295       15.368452       12.096971
  O           26.424052       14.768065       37.756536
  C           25.709500       15.404897       36.999728
  O           26.117765       16.471826       36.257042
  C           24.959857       17.065513       35.724230
  C           23.989459       15.926960       35.686483
  O           24.381136       15.138038       36.800392
  H           24.637296       17.864194       36.401698
  H           25.142765       17.485648       34.735023
  H           24.090365       15.330726       34.775812
  H           22.947469       16.249703       35.789403
  O            8.180127       12.191165       20.016641
  C            7.709299       11.099194       19.743107
  O            8.410569        9.931050       19.727029
  C            7.580911        8.964876       19.130979
  C            6.207168        9.491466       19.404713
  O            6.398907       10.898523       19.399446
  H            7.806242        8.928878       18.059144
  H            7.738942        7.977199       19.564593
  H            5.838366        9.186852       20.387666
  H            5.477164        9.198552       18.641958
  O           23.159711       35.891738       23.311553
  C           22.963062       36.357206       24.422214
  O           21.847753       37.047932       24.790431
  C           22.116242       37.616551       26.048082
  C           23.153508       36.698177       26.613827
  O           23.852463       36.257686       25.458825
  H           22.499331       38.631687       25.894319
  H           21.220767       37.660697       26.668304
  H           22.708747       35.832505       27.111622
  H           23.835193       37.200007       27.309510
  O           24.112801       15.435834       32.106236
  C           25.053240       15.106274       32.810413
  O           26.059135       15.936640       33.204452
  C           27.053626       15.127800       33.782262
  C           26.281406       13.934665       34.250774
  O           25.234049       13.838822       33.296596
  H           27.784816       14.871485       33.007301
  H           27.561597       15.638699       34.600460
  H           25.846278       14.089641       35.241554
  H           26.878708       13.016183       34.261821
  O           21.133602        7.225033       19.754237
  C           22.098930        6.479682       19.715589
  O           22.609774        5.811411       20.787528
  C           23.843274        5.271659       20.382257
  C           23.677176        5.137499       18.901104
  O           22.816026        6.219521       18.578228
  H           24.635548        5.980172       20.649110
  H           24.040462        4.314010       20.864466
  H           23.187897        4.199601       18.625506
  H           24.623588        5.221337       18.355418
  O            8.368928       21.215797       25.848835
  C            7.169645       21.018169       25.956373
  O            6.577530       19.791251       25.930459
  C            5.191685       20.008608       25.834078
  C            5.024906       21.366428       26.440633
  O            6.243333       22.015434       26.107727
  H            4.911119       19.989270       24.774923
  H            4.627186       19.244727       26.369175
  H            4.931860       21.322001       27.528920
  H            4.170311       21.915893       26.030442
  O           15.716234       37.005192       27.102431
  C           15.841641       36.966172       28.315547
  O           14.849804       37.236906       29.209730
  C           15.454481       37.324618       30.476131
  C           16.678328       36.477762       30.319820
  O           17.013564       36.652687       28.951019
  H           15.698128       38.375057       30.671358
  H           14.794984       36.956754       31.262414
  H           16.472432       35.419870       30.502772
  H           17.504996       36.798098       30.963641
  O            3.232588       18.131921       19.758449
  C            4.148782       17.823539       19.013876
  O            4.408633       18.413716       17.813556
  C            5.372197       17.618934       17.167828
  C            6.071890       16.950977       18.309609
  O            5.044182       16.822377       19.281144
  H            4.853012       16.901942       16.521864
  H            6.050213       18.221639       16.563227
  H            6.873258       17.570910       18.720089
  H            6.478790       15.968455       18.045822
  O            6.988954       37.174795        8.981769
  C            5.861238       37.616662        9.129789
  O            5.438706       38.324346       10.214801
  C            4.040109       38.429154       10.114597
  C            3.802024       38.307740        8.642193
  O            4.851457       37.449257        8.219943
  H            3.589924       37.603912       10.677811
  H            3.678656       39.376541       10.514984
  H            3.900443       39.268031        8.129206
  H            2.826133       37.871659        8.401425
  O           36.741764       14.131739       26.708606
  C           37.117246       13.682845       25.637901
  O           38.394821       13.753042       25.169420
  C           38.358290       13.352420       23.822101
  C           37.148095       12.473781       23.768968
  O           36.293284       13.050242       24.745488
  H           38.250352       14.246635       23.197899
  H           39.266872       12.822213       23.535994
  H           37.374472       11.444195       24.058287
  H           36.664440       12.471226       22.785824
  O           33.567887       20.724756       26.843963
  C           34.768986       20.547247       26.965424
  O           35.389050       19.336651       26.884333
  C           36.712120       19.525445       27.321302
  C           36.952430       20.975049       27.037930
  O           35.666541       21.551169       27.214496
  H           36.758707       19.298069       28.392296
  H           37.407908       18.878839       26.786251
  H           37.279166       21.144116       26.008532
  H           37.676622       21.430213       27.722673
  O           30.047175       37.404640        7.100632
  C           29.163273       37.899534        7.780850
  O           28.155290       37.201476        8.375228
  C           27.226251       38.146363        8.845520
  C           28.066153       39.369088        9.042769
  O           29.056113       39.241398        8.032683
  H           26.458457       38.289167        8.076755
  H           26.751800       37.817258        9.770229
  H           28.555244       39.378642       10.020368
  H           27.502575       40.300027        8.915362
  O            6.876696        8.186436       22.325654
  C            8.062789        8.116186       22.603408
  O            9.008521        7.511079       21.831374
  C           10.178298        7.429813       22.607337
  C           10.016788        8.562165       23.572270
  O            8.609396        8.631867       23.748307
  H           10.194047        6.455542       23.108783
  H           11.074367        7.533162       21.995063
  H           10.370260        9.509671       23.157193
  H           10.517145        8.382197       24.530264
  O            6.200238        3.837740       35.017549
  C            7.095510        4.647451       34.839347
  O            6.955384        5.998667       34.945092
  C            8.130079        6.572749       34.427772
  C            9.144681        5.490923       34.626856
  O            8.375428        4.304769       34.493112
  H            7.966900        6.799571       33.368138
  H            8.394758        7.489676       34.954736
  H            9.584130        5.518434       35.627420
  H            9.948063        5.515948       33.882242
  O           16.356225       16.526734       20.080960
  C           15.623264       15.551403       20.060964
  O           14.267604       15.598993       19.932433
  C           13.786141       14.305878       20.202887
  C           14.955683       13.437155       19.860992
  O           16.067722       14.261364       20.178246
  H           13.523153       14.249606       21.265229
  H           12.907162       14.070844       19.602340
  H           14.987951       13.191329       18.796320
  H           14.984070       12.509618       20.443546
  O           24.686933       10.585457       23.504817
  C           24.242100       10.235377       22.423860
  O           24.426721        9.005303       21.867592
  C           23.978021        9.087114       20.537526
  C           22.978552       10.199569       20.591412
  O           23.497763       11.044797       21.607587
  H           24.834276        9.328368       19.897585
  H           23.534232        8.148531       20.204942
  H           21.988269        9.848354       20.893056
  H           22.892326       10.743118       19.643984
  O            5.109831       30.222596        8.376608
  C            3.965382       30.604650        8.194474
  O            3.437631       31.752802        8.704207
  C            2.051126       31.701394        8.476038
  C            1.943084       30.801848        7.285011
  O            3.041073       29.917238        7.453788
  H            1.569834       31.275384        9.363604
  H            1.638636       32.692174        8.284450
  H            2.067096       31.346835        6.345537
  H            1.000000       30.244956        7.253981
  O           34.362445       17.630022       34.675761
  C           35.542666       17.327458       34.609172
  O           36.579232       18.200256       34.751839
  C           37.745114       17.516462       34.364222
  C           37.389458       16.084463       34.613798
  O           35.991220       16.056309       34.367347
  H           37.929292       17.720109       33.303324
  H           38.609931       17.835073       34.946526
  H           37.573521       15.789708       35.650253
  H           37.913091       15.391260       33.946131
  O           17.460933       24.441158       34.227159
  C           18.613550       24.178437       34.529405
  O           19.007898       23.054453       35.191030
  C           20.350940       23.247706       35.559800
  C           20.839173       24.225658       34.537725
  O           19.678936       24.992933       34.251828
  H           20.375279       23.660336       36.574712
  H           20.911732       22.313062       35.538530
  H           21.172599       23.730997       33.621681
  H           21.644412       24.868074       34.911080
  O           28.461624        4.014964       35.777855
  C           27.682641        3.287320       35.184036
  O           26.361236        3.149717       35.486616
  C           25.884581        2.053953       34.745536
  C           26.819747        2.009795       33.578096
  O           28.037421        2.491525       34.127466
  H           25.956581        1.156221       35.369871
  H           24.847964        2.196462       34.439566
  H           26.504147        2.678473       32.772946
  H           26.951516        1.000000       33.173807
  O           21.392856       20.805372       20.028123
  C           22.396182       20.119658       19.918423
  O           22.405416       18.805774       19.557558
  C           23.707509       18.327992       19.788596
  C           24.539952       19.567186       19.684484
  O           23.663752       20.579717       20.157405
  H           23.741697       17.887419       20.791405
  H           23.994771       17.574287       19.055173
  H           24.816559       19.791064       18.650866
  H           25.447553       19.525247       20.296858
  O           26.592446       26.366079       20.052160
  C           27.551909       25.981094       20.700324
  O           27.870233       24.674281       20.918288
  C           28.877464       24.657478       21.899259
  C           29.521325       25.998687       21.738009
  O           28.443346       26.820198       21.314120
  H           28.403369       24.539318       22.880162
  H           29.580351       23.839656       21.739203
  H           30.291293       25.994529       20.962037
  H           29.954038       26.379994       22.669602
  O            5.791589       13.443440       16.690963
  C            6.929883       13.230222       16.306611
  O            7.366491       12.050501       15.782940
  C            8.767736       12.133747       15.701187
  C            9.008374       13.607556       15.604334
  O            7.938523       14.154993       16.360859
  H            9.193958       11.702163       16.613859
  H            9.152258       11.594400       14.835307
  H            8.937128       13.969044       14.575135
  H            9.973470       13.911706       16.024552
  O           35.405210        5.154425       17.358867
  C           36.193808        5.942609       16.863105
  O           36.179723        6.342490       15.560609
  C           37.377764        7.043340       15.335643
  C           37.731770        7.543864       16.700763
  O           37.219851        6.530533       17.553816
  H           38.121961        6.340214       14.944894
  H           37.240171        7.854797       14.620727
  H           37.234593        8.489109       16.933846
  H           38.811316        7.661844       16.846232
  O           35.641204        5.637147       35.620377
  C           34.465301        5.827337       35.884915
  O           33.602825        6.553293       35.119589
  C           32.436344        6.738285       35.882609
  C           32.459330        5.567732       36.814637
  O           33.847997        5.341034       37.006496
  H           32.517701        7.693656       36.413219
  H           31.544285        6.750259       35.256041
  H           32.012453        4.676433       36.366431
  H           31.966003        5.773085       37.771172
  O           33.106200       15.173686       11.318347
  C           33.507277       14.042380       11.537856
  O           32.706992       12.962265       11.760331
  C           33.539749       11.923095       12.211709
  C           34.868653       12.283208       11.625424
  O           34.832357       13.702636       11.602944
  H           33.550725       11.939460       13.307388
  H           33.187683       10.949360       11.870550
  H           34.980267       11.914436       10.602414
  H           35.712123       11.928177       12.227928
  O            8.522871       20.123355       32.898614
  C            8.911188       20.697592       33.902786
  O           10.101330       20.462146       34.523049
  C           10.058328       21.133855       35.757576
  C            9.079483       22.236642       35.502381
  O            8.189802       21.660046       34.557603
  H            9.704119       20.432237       36.521230
  H           11.040299       21.510904       36.044050
  H            9.554972       23.112850       35.053861
  H            8.538384       22.545119       36.403798
  O           16.823428       24.413890       21.566126
  C           17.749654       23.684745       21.250922
  O           17.670210       22.328991       21.140386
  C           18.986270       21.852397       21.006422
  C           19.706864       23.025526       20.419984
  O           19.013216       24.134148       20.973525
  H           19.361986       21.588964       22.001581
  H           19.031852       20.974716       20.361364
  H           19.619217       23.059418       19.330870
  H           20.767006       23.057159       20.694935
  O           19.974548       38.203824       24.855029
  C           18.790553       38.495045       24.807643
  O           17.848703       37.811897       24.098541
  C           16.683274       38.598564       24.103970
  C           16.835603       39.410285       25.351890
  O           18.242817       39.567946       25.459079
  H           16.681084       39.220235       23.201517
  H           15.783456       37.983243       24.118423
  H           16.469281       38.879800       26.234724
  H           16.341473       40.386253       25.290073
  O           37.658817       23.746522       36.058707
  C           37.946390       22.560781       36.043828
  O           37.177162       21.566607       36.569665
  C           37.962656       20.400376       36.571923
  C           38.936609       20.653099       35.464246
  O           39.100827       22.063175       35.500538
  H           38.455141       20.316641       37.547293
  H           37.359322       19.509462       36.396535
  H           38.533504       20.367359       34.489126
  H           39.897278       20.148605       35.616231
  C           30.958843       33.552309        4.054629
  O           29.751366       33.196255        4.739483
  C           29.334301       34.128199        5.628322
  O           29.894441       35.186077        5.874972
  O           28.187265       33.680751        6.205037
  C           27.644756       34.570282        7.167803
  H           31.785305       33.670624        4.763334
  H           31.210265       32.744193        3.361565
  H           30.819145       34.468068        3.477247
  H           26.731902       34.116894        7.577115
  H           28.350412       34.717717        7.997991
  H           27.382925       35.523249        6.706176
  C           39.736381       32.192137       18.289723
  O           39.802975       33.523217       18.816592
  C           39.138253       34.437599       18.071911
  O           38.529529       34.213892       17.036002
  O           39.270596       35.650350       18.672097
  C           38.618380       36.705170       17.983280
  H           40.192488       32.146259       17.295157
  H           40.296016       31.531149       18.957932
  H           38.702516       31.844196       18.250217
  H           38.790644       37.636084       18.540169
  H           39.043272       36.829838       16.976888
  H           37.543922       36.524305       17.932031
  C            9.094166       28.828457       20.485425
  O           10.172352       29.575980       21.062075
  C           11.182787       28.804236       21.526759
  O           11.226068       27.583233       21.495480
  O           12.139143       29.622336       22.041148
  C           13.260059       28.932222       22.570099
  H            8.638524       28.168389       21.231080
  H            8.334662       29.535231       20.138692
  H            9.441419       28.250056       19.627306
  H           13.965316       29.676020       22.964787
  H           12.955135       28.280944       23.401819
  H           13.760997       28.357683       21.789864
  C           26.009489       34.063016       14.747107
  O           25.715762       34.591475       16.046436
  C           25.274145       33.661576       16.925505
  O           25.111315       32.473091       16.691644
  O           25.036086       34.279759       18.112804
  C           24.560133       33.409504       19.127015
  H           25.110809       33.633866       14.291581
  H           26.359623       34.884111       14.114803
  H           26.801037       33.313646       14.805377
  H           24.392510       34.002403       20.036286
  H           23.599440       32.962897       18.832888
  H           25.297263       32.636181       19.347040
  C           24.383208       14.945153       24.353432
  O           25.352536       13.986135       23.912426
  C           25.574904       12.988757       24.800282
  O           25.039793       12.867571       25.892377
  O           26.502386       12.147920       24.269933
  C           26.830847       11.053160       25.110240
  H           24.718190       15.440166       25.271064
  H           24.271531       15.702884       23.572425
  H           23.413505       14.469223       24.510494
  H           27.587584       10.443414       24.598421
  H           27.266060       11.408866       26.055207
  H           25.952334       10.433761       25.295605
  C            1.561742       27.926936        5.084374
  O            1.181896       28.106392        6.454525
  C            1.819032       27.272867        7.309974
  O            2.641346       26.422010        7.004127
  O            1.380743       27.541069        8.568731
  C            1.972444       26.725929        9.567699
  H            1.316256       26.915426        4.743955
  H            0.999892       28.642419        4.476913
  H            2.626725       28.125194        4.950192
  H            1.549311       27.013639       10.539595
  H            1.731841       25.667160        9.394441
  H            3.051937       26.879224        9.599251
  C           14.253590       35.918119       11.208519
  O           14.471997       36.240210        9.829260
  C           15.346726       35.414029        9.208957
  O           15.933382       34.473209        9.723146
  O           15.465518       35.816090        7.915614
  C           16.364576       35.029121        7.150845
  H           15.185880       35.999431       11.777309
  H           13.535019       36.634294       11.617602
  H           13.833379       34.915676       11.308677
  H           16.395244       35.437145        6.131543
  H           17.379899       35.087088        7.568768
  H           16.023068       33.994374        7.101129
  C            6.865709       22.502279       32.646960
  O            8.196856       23.007811       32.809083
  C            8.246015       24.251843       33.340560
  O            7.283866       24.933201       33.662618
  O            9.551587       24.615776       33.447950
  C            9.742558       25.912234       33.991298
  H            6.291945       23.135489       31.962023
  H            6.930811       21.498286       32.217589
  H            6.360220       22.430404       33.611748
  H           10.821866       26.112492       34.028582
  H            9.279746       26.673054       33.346428
  H            9.343489       25.966786       35.004988
  C           28.235236       34.118555       31.844213
  O           29.577664       33.655730       32.037815
  C           29.654196       32.424501       32.595237
  O           28.707277       31.728996       32.931865
  O           30.967748       32.097597       32.722567
  C           31.187439       30.822015       33.303194
  H           27.711433       34.198669       32.802604
  H           28.278118       35.112361       31.389120
  H           27.692199       33.455218       31.168496
  H           32.271439       30.657616       33.368901
  H           30.777780       30.786323       34.322903
  H           30.753649       30.037152       32.682214
  C           20.178384       27.581499       16.522333
  O           21.511174       27.448600       17.032046
  C           22.364035       28.398081       16.580810
  O           22.087281       29.301392       15.805481
  O           23.584683       28.169121       17.134070
  C           24.578632       29.099351       16.735023
  H           20.170019       27.487057       15.431319
  H           19.568862       26.776978       16.944031
  H           19.743161       28.535802       16.824634
  H           25.521822       28.824773       17.226348
  H           24.737495       29.052009       15.648091
  H           24.306377       30.109236       17.044554
  C           19.128314       13.671492       39.640502
  O           18.138820       12.869975       40.297976
  C           17.731822       11.802711       39.571478
  O           18.125001       11.503417       38.453652
  O           16.804059       11.124291       40.297772
  C           16.289319        9.976712       39.641568
  H           18.732631       14.086822       38.707638
  H           19.393151       14.500320       40.303455
  H           20.029632       13.087765       39.444573
  H           15.547944        9.507797       40.302538
  H           15.779498       10.261001       38.709815
  H           17.084984        9.256832       39.445378
  C           21.345967       12.225857       29.828791
  O           21.771041       10.981047       29.259966
  C           21.541806        9.911399       30.057340
  O           21.034155        9.940428       31.168712
  O           21.980560        8.798765       29.410780
  C           21.801271        7.599558       30.147163
  H           21.888269       12.432243       30.757560
  H           21.568856       13.022875       29.113471
  H           20.269650       12.219391       30.010454
  H           22.191728        6.767041       29.546448
  H           22.371149        7.634709       31.086792
  H           20.742607        7.422088       30.340906
  C           14.699983       31.361871       26.477020
  O           13.742986       32.010270       27.324095
  C           12.677604       32.512889       26.657136
  O           12.496502       32.459574       25.449634
  O           11.846231       33.094014       27.562460
  C           10.683613       33.668346       26.987166
  H           15.116381       32.068708       25.751559
  H           15.515086       30.989151       27.104146
  H           14.246909       30.512194       25.962945
  H           10.087020       34.115030       27.793980
  H           10.955810       34.469354       26.284888
  H           10.082424       32.904734       26.491919
  C           21.568788       31.910058       11.723568
  O           20.142308       31.991305       11.834716
  C           19.656184       33.247474       11.699720
  O           20.318647       34.256807       11.509746
  O           18.302906       33.193534       11.819002
  C           17.666151       34.455681       11.700566
  H           22.052472       32.496779       12.511672
  H           21.862238       30.862950       11.842109
  H           21.899008       32.249389       10.740049
  H           16.584438       34.306084       11.818544
  H           18.002453       35.134024       12.497843
  H           17.852070       34.889231       10.717068
  C           25.743632       32.870435       36.558101
  O           24.598605       32.434739       35.814540
  C           23.664310       33.398454       35.638908
  O           23.728327       34.544893       36.057570
  O           22.638115       32.868470       34.921593
  C           21.582077       33.781914       34.670784
  H           25.453911       33.183754       37.566661
  H           26.437137       32.028746       36.643014
  H           26.253840       33.683997       36.039156
  H           20.805568       33.258607       34.096690
  H           21.133010       34.121542       35.615184
  H           21.937975       34.628884       34.082756
  C           37.991297       27.068268       11.525750
  O           38.527523       28.388010       11.682408
  C           38.325974       28.915252       12.912813
  O           37.742398       28.372474       13.839383
  O           38.879257       30.156924       12.937888
  C           38.731667       30.825378       14.180420
  H           36.905400       27.072336       11.667568
  H           38.206112       26.730152       10.507844
  H           38.463277       26.374727       12.224131
  H           39.201262       31.814625       14.095143
  H           37.667801       30.975304       14.414109
  H           39.230304       30.271164       14.976666
  C           37.076062       22.258004       30.579435
  O           37.185266       23.395172       29.714148
  C           36.014357       23.756027       29.138600
  O           34.936949       23.200440       29.294209
  O           36.245258       24.840114       28.351237
  C           35.089936       25.318754       27.681435
  H           36.741410       21.377415       30.020981
  H           38.065710       22.048340       30.995656
  H           36.393738       22.466088       31.405652
  H           35.381788       26.183568       27.070437
  H           34.687876       24.548884       27.007233
  H           34.334379       25.639542       28.399786
  C           30.406896        4.502323       25.883587
  O           28.994867        4.348968       26.074529
  C           28.395564        3.594097       25.124000
  O           28.948583        3.074385       24.165997
  O           27.069651        3.519492       25.415355
  C           26.320466        2.753843       24.485299
  H           30.616595        5.006941       24.934542
  H           30.797261        5.120022       26.697628
  H           30.908254        3.533318       25.917787
  H           25.269103        2.761849       24.803060
  H           26.374112        3.203301       23.483296
  H           26.670514        1.720913       24.467355
  C           17.242741       14.378857        2.137802
  O           16.941751       13.189996        2.879297
  C           17.938599       12.274206        2.868232
  O           19.010688       12.387313        2.292444
  O           17.538236       11.202743        3.603198
  C           18.498615       10.160625        3.667704
  H           17.411899       14.143882        1.081643
  H           16.384415       15.053237        2.209140
  H           18.113007       14.885925        2.558538
  H           18.079252        9.345227        4.272403
  H           18.706186        9.764279        2.663351
  H           19.414933       10.511313        4.144337
  C           11.509255       27.250742       10.231846
  O           10.772126       28.466571       10.052403
  C            9.653359       28.542166       10.810787
  O            9.252079       27.686012       11.585173
  O            9.048711       29.733163       10.556965
  C            7.851879       29.936475       11.290967
  H           10.903124       26.384766        9.945506
  H           12.390231       27.285866        9.584352
  H           11.847005       27.153363       11.265259
  H            7.440225       30.915449       11.010699
  H            7.106461       29.170236       11.033808
  H            8.053921       29.938100       12.362870
  C           24.781110       12.655277       28.774982
  O           24.983571       11.536035       27.903141
  C           24.742254       10.339352       28.488133
  O           24.392650       10.164061       29.646041
  O           24.962862        9.364597       27.566349
  C           24.747998        8.051350       28.057997
  H           25.461345       12.606475       29.631837
  H           24.996177       13.569409       28.213994
  H           23.744527       12.697248       29.114443
  H           24.958812        7.342694       27.245739
  H           25.437444        7.831466       28.885774
  H           23.711042        7.923009       28.371130
  C           23.147863       23.261954       18.828789
  O           21.899315       23.949727       18.976757
  C           22.023709       25.204296       19.469793
  O           23.070221       25.750559       19.786192
  O           20.781607       25.749948       19.558937
  C           20.772004       27.073069       20.070562
  H           23.643715       23.146974       19.798434
  H           22.944293       22.266326       18.423964
  H           23.798579       23.789964       18.129308
  H           19.729799       27.417511       20.110148
  H           21.174026       27.094225       21.093710
  H           21.334718       27.741694       19.417803
  C           15.813005       32.523053       39.257290
  O           16.994779       32.773373       38.486218
  C           16.743398       33.136292       37.206532
  O           15.638566       33.247985       36.696070
  O           17.933519       33.348598       36.584407
  C           17.809060       33.733061       35.224555
  H           15.237827       31.696519       38.826813
  H           16.117933       32.242176       40.269578
  H           15.196946       33.421836       39.321798
  H           18.818332       33.871318       34.813880
  H           17.313238       32.942123       34.643627
  H           17.266904       34.675751       35.139697
  C           19.822121       10.456097       27.444917
  O           18.546855       10.868601       26.937633
  C           17.936768       11.808560       27.697088
  O           18.374993       12.291333       28.730813
  O           16.747930       12.118220       27.114615
  C           16.001352       13.096579       27.820260
  H           19.716617       10.006192       28.437769
  H           20.233434        9.703546       26.765882
  H           20.513948       11.299628       27.481377
  H           15.062518       13.268860       27.276835
  H           15.747561       12.736136       28.827519
  H           16.551456       14.037116       27.871013
  C           18.397208       16.524046       36.354960
  O           17.695608       15.330014       36.723531
  C           18.209557       14.204710       36.173942
  O           19.170722       14.148013       35.421183
  O           17.466974       13.148008       36.598736
  C           17.902019       11.898682       36.086466
  H           18.352082       16.680855       35.272059
  H           17.912517       17.371798       36.847902
  H           19.435219       16.480456       36.689823
  H           17.237651       11.117231       36.479339
  H           17.828625       11.884601       34.989509
  H           18.921139       11.684120       36.410749
  C            7.660377       24.915041       10.354948
  O            6.660628       23.927363       10.074245
  C            5.715699       23.819815       11.037594
  O            5.669988       24.466819       12.073450
  O            4.829135       22.861921       10.656881
  C            3.782394       22.646175       11.589773
  H            8.204851       24.665003       11.271643
  H            8.370843       24.928870        9.523295
  H            7.210744       25.906199       10.438225
  H            3.130368       21.854787       11.196114
  H            4.187871       22.302401       12.552222
  H            3.189817       23.552780       11.719073
  C            2.494883       35.417742       34.908479
  O            3.556473       34.619071       35.446021
  C            4.708621       34.697889       34.739733
  O            4.886404       35.360333       33.728169
  O            5.632908       33.906670       35.346501
  C            6.894062       33.896628       34.696971
  H            2.239322       35.090534       33.895107
  H            1.614712       35.290691       35.545470
  H            2.768813       36.474370       34.909030
  H            7.561924       33.227277       35.255835
  H            6.798733       33.502711       33.674894
  H            7.330431       34.896289       34.689259
  C           33.378973        6.162179       21.094933
  O           34.705069        5.813306       21.511535
  C           35.623298        5.881394       20.519205
  O           35.403535        6.193919       19.358286
  O           36.832314        5.535016       21.035736
  C           37.888907        5.561475       20.089475
  H           33.023281        5.474868       20.320086
  H           32.715597        6.080659       21.960892
  H           33.346410        7.191776       20.733866
  H           38.813720        5.260862       20.600114
  H           37.700383        4.841521       19.280139
  H           38.023002        6.568005       19.691081
  C           27.430400       11.819604       10.698983
  O           27.431982       12.039853       12.115065
  C           26.588980       11.226616       12.793662
  O           25.863654       10.374220       12.302721
  O           26.683321       11.526715       14.116364
  C           25.839485       10.742090       14.943892
  H           26.437595       12.011567       10.278521
  H           28.139844       12.516556       10.243412
  H           27.751566       10.802613       10.466428
  H           25.983228       11.064922       15.983853
  H           24.783816       10.903954       14.682622
  H           26.101210        9.685879       14.868272
  C           32.228157       36.847254        3.276658
  O           31.804999       37.250239        4.585223
  C           32.804365       37.745566        5.352308
  O           33.975858       37.855238        5.021740
  O           32.280815       38.093943        6.557724
  C           33.233216       38.626946        7.464003
  H           32.972254       36.046255        3.340057
  H           31.355919       36.467404        2.736738
  H           32.630852       37.697220        2.722677
  H           32.715848       38.867312        8.402595
  H           34.011365       37.883144        7.687928
  H           33.673188       39.541926        7.065211
  C           39.163970       35.223821       39.384430
  O           39.150866       36.641698       39.592408
  C           37.924969       37.200313       39.459646
  O           36.892779       36.608083       39.181174
  O           38.041381       38.536387       39.682927
  C           36.818065       39.245534       39.568432
  H           38.839819       34.978775       38.367485
  H           40.190035       34.868098       39.515774
  H           38.530266       34.720625       40.117038
  H           37.019352       40.308617       39.757476
  H           36.412719       39.154131       38.550473
  H           36.097801       38.891240       40.307008
  C            4.552349       20.211052       22.136404
  O            4.533369       21.607200       21.813587
  C            4.799868       22.413598       22.867721
  O            5.032396       22.047733       24.010426
  O            4.757326       23.702471       22.437029
  C            5.016809       24.655957       23.454886
  H            3.787751       19.976317       22.884462
  H            4.330875       19.646250       21.226158
  H            5.539025       19.911276       22.494320
  H            4.951535       25.658147       23.010191
  H            4.259391       24.588624       24.249043
  H            6.019800       24.520629       23.861697
  C            6.115051       21.009029       38.911055
  O            6.021534       19.580977       38.835398
  C            7.122106       18.989986       38.313889
  O            8.126023       19.564268       37.918856
  O            6.915028       17.646337       38.298897
  C            8.000987       16.904775       37.766655
  H            6.234032       21.442573       37.912465
  H            5.186336       21.390306       39.345469
  H            6.943273       21.307708       39.556299
  H            7.733292       15.839815       37.791131
  H            8.182091       17.183724       36.718662
  H            8.898564       17.051692       38.368794
  C            3.672104       30.324281       18.545285
  O            4.356595       30.876473       17.413758
  C            5.523062       30.253027       17.125364
  O            6.004282       29.311557       17.738358
  O            6.071004       30.859994       16.039155
  C            7.309615       30.299918       15.633376
  H            4.283229       30.415051       19.449490
  H            2.747082       30.888747       18.694662
  H            3.411107       29.279632       18.366150
  H            7.669870       30.861166       14.760669
  H            8.058565       30.399801       16.432123
  H            7.183552       29.254969       15.347036
  C           21.608928        1.702282       19.029629
  O           21.308523        2.836880       19.851971
  C           20.237710        3.548413       19.428203
  O           19.557963        3.303698       18.442424
  O           20.052847        4.587430       20.285390
  C           18.955421        5.420710       19.948047
  H           21.852614        2.017291       18.009489
  H           22.480544        1.194267       19.452484
  H           20.773395        0.999919       19.021240
  H           18.896846        6.227570       20.690978
  H           19.108911        5.880491       18.961162
  H           18.022307        4.856382       19.973186
  C           15.103427       17.190533       35.686744
  O           16.388950       17.682685       35.287976
  C           16.603544       18.977298       35.620278
  O           15.813568       19.710873       36.196044
  O           17.848206       19.323167       35.196378
  C           18.197788       20.668183       35.481376
  H           14.303579       17.754691       35.195552
  H           15.027422       16.143440       35.379464
  H           14.991549       17.238456       36.771496
  H           19.209938       20.848374       35.094745
  H           17.513018       21.361261       34.971836
  H           18.200064       20.844942       36.557736
  C           35.624627       16.547622       11.979307
  O           35.016618       16.109085       10.757911
  C           35.873962       16.054386        9.711743
  O           37.060280       16.346876        9.740021
  O           35.185351       15.624115        8.621247
  C           35.974560       15.526912        7.446428
  H           36.019849       17.563297       11.872045
  H           34.858164       16.555138       12.759742
  H           36.417139       15.861512       12.283738
  H           35.328984       15.181644        6.627635
  H           36.375547       16.512144        7.168168
  H           36.779760       14.803863        7.583005
  C           31.060907        3.104440       22.369580
  O           30.070696        2.099735       22.116891
  C           28.948398        2.576801       21.529222
  O           28.736051        3.741939       21.227460
  O           28.094372        1.536203       21.338704
  C           26.867556        1.905494       20.729568
  H           30.673549        3.866028       23.054589
  H           31.924208        2.623760       22.838897
  H           31.390242        3.564806       21.436252
  H           26.250167        1.002781       20.627882
  H           26.321312        2.618909       21.363251
  H           27.041461        2.321601       19.736385
  C           24.076529       39.890024       38.379637
  O           25.371783       40.286515       37.911757
  C           26.390449       39.833051       38.679344
  O           26.280567       39.155419       39.690503
  O           27.557864       40.267790       38.134692
  C           28.711896       39.861488       38.852764
  H           23.887801       40.289842       39.381548
  H           23.326042       40.298872       37.696839
  H           23.982957       38.802484       38.380494
  H           29.594687       40.266951       38.340240
  H           28.695707       40.270935       39.873054
  H           28.789726       38.773651       38.871554
  C           21.214838       22.032773       39.778983
  O           20.798426       23.401419       39.863887
  C           19.592107       23.639786       39.297780
  O           18.883121       22.812457       38.744096
  O           19.308099       24.961165       39.445414
  C           18.062470       25.345852       38.886018
  H           21.316484       21.723269       38.733433
  H           22.191340       21.941438       40.263443
  H           20.510859       21.382284       40.301265
  H           17.931845       26.424085       39.049573
  H           18.054059       25.165072       37.801515
  H           17.242328       24.818108       39.374540
  C           13.477055       29.085850        2.614520
  O           12.866190       30.154256        3.348790
  C           13.658238       30.672549        4.316536
  O           14.789818       30.302351        4.592544
  O           12.974412       31.672473        4.933815
  C           13.697545       32.300557        5.980281
  H           13.715227       28.247285        3.277379
  H           12.765627       28.738908        1.859469
  H           14.376664       29.433935        2.103597
  H           13.060314       33.081819        6.416133
  H           13.935532       31.577121        6.773314
  H           14.604927       32.766981        5.594399
  C           23.031202       26.243192        9.111732
  O           24.438067       25.970316        9.103512
  C           24.922075       25.569320       10.302444
  O           24.275002       25.442141       11.331435
  O           26.255037       25.338886       10.166016
  C           26.888780       24.914000       11.361986
  H           22.798708       27.056357        9.807439
  H           22.737000       26.554223        8.105102
  H           22.465884       25.346560        9.372441
  H           27.955888       24.763838       11.149544
  H           26.804447       25.687119       12.139208
  H           26.466333       23.969045       11.706079
  C           29.159701        2.705386        9.645579
  O           29.241112        3.878996       10.463999
  C           28.825820        3.684642       11.737678
  O           28.402648        2.636525       12.202516
  O           28.954271        4.859644       12.409520
  C           28.544668        4.792189       13.766051
  H           28.123411        2.360422        9.565568
  H           29.517651        2.961050        8.644026
  H           29.794677        1.912160       10.044450
  H           28.679145        5.785849       14.214333
  H           27.478661        4.531826       13.834901
  H           29.156107        4.076418       14.317062
  C           39.284669       39.741390       37.340777
  O           38.605678       40.173229       36.154908
  C           39.199145       39.765670       35.008526
  O           40.221189       39.100521       34.926648
  O           38.465147       40.230311       33.962650
  C           38.986989       39.873595       32.692637
  H           40.300008       40.150219       37.376061
  H           38.731028       40.114551       38.207283
  H           39.311637       38.651493       37.394601
  H           38.331913       40.300059       31.921013
  H           39.991900       40.298040       32.555156
  H           39.003375       38.789351       32.574542
  C            4.216216       28.161700       35.152959
  O            3.940023       28.831584       36.389395
  C            3.105938       29.890019       36.260882
  O            2.611100       30.291297       35.217900
  O            2.918953       30.434526       37.492568
  C            2.061030       31.564331       37.495730
  H            4.709834       28.838733       34.447787
  H            4.890649       27.325677       35.359854
  H            3.298552       27.762155       34.717349
  H            1.982161       31.931716       38.527819
  H            2.483916       32.371857       36.880938
  H            1.064367       31.291137       37.146692
  C           37.829028       11.760719       27.911275
  O           37.996278       11.030360       29.132915
  C           37.037460       11.283449       30.054389
  O           36.100030       12.056196       29.921017
  O           37.301371       10.534110       31.157721
  C           36.365362       10.711845       32.208815
  H           37.878023       12.839167       28.095257
  H           38.644224       11.487641       27.234900
  H           36.883790       11.499415       27.431958
  H           36.669506       10.074228       33.049851
  H           36.369141       11.754818       32.556800
  H           35.366522       10.412359       31.888773
  C           27.676429        6.931384       29.700210
  O           28.916282        6.231971       29.534720
  C           29.083717        5.207314       30.403364
  O           28.295304        4.867897       31.273365
  O           30.284695        4.624601       30.145299
  C           30.585973        3.530709       30.996846
  H           27.615486        7.380562       30.697118
  H           27.633410        7.732401       28.956489
  H           26.830619        6.262075       29.532484
  H           31.572142        3.138160       30.714397
  H           30.640867        3.860592       32.044254
  H           29.848198        2.736186       30.877597
  C           17.424568        3.115286       26.279664
  O           16.265709        3.958331       26.290625
  C           15.576412        3.921486       27.455104
  O           15.858478        3.247778       28.435031
  O           14.511082        4.758868       27.343916
  C           13.697452        4.808797       28.504956
  H           17.141586        2.066518       26.418609
  H           17.911956        3.216100       25.305554
  H           18.132939        3.423274       27.050933
  H           12.866987        5.501198       28.311801
  H           13.269346        3.818978       28.719161
  H           14.267476        5.178796       29.358170
  C           23.065727       20.679243       12.694621
  O           23.169518       19.431228       13.391388
  C           24.431857       18.946560       13.455409
  O           25.426925       19.470593       12.976944
  O           24.400748       17.771455       14.138534
  C           25.670207       17.152669       14.272994
  H           23.389790       20.569836       11.654278
  H           22.016251       20.987751       12.699572
  H           23.652305       21.451071       13.196326
  H           25.536859       16.214305       14.828052
  H           26.085499       16.905115       13.285497
  H           26.352934       17.793609       14.832351
  C           33.911211       32.311890       38.619122
  O           35.125226       31.623023       38.294421
  C           36.206205       32.075679       38.971981
  O           36.212679       32.986272       39.787136
  O           37.285967       31.346402       38.583692
  C           38.494495       31.727232       39.221601
  H           33.989977       33.374715       38.367132
  H           33.101183       31.875120       38.027779
  H           33.668771       32.188811       39.676276
  H           39.301057       31.088788       38.836570
  H           38.745513       32.770459       38.981670
  H           38.421726       31.583058       40.300358
  C           11.835399       21.705250       12.928675
  O           11.911163       20.374030       12.403401
  C           11.885385       19.411007       13.354412
  O           11.815164       19.595207       14.560580
  O           11.958189       18.202363       12.736045
  C           11.944955       17.099905       13.628743
  H           12.691341       21.913993       13.579128
  H           11.859516       22.406286       12.089291
  H           10.900203       21.852935       13.471904
  H           12.015229       16.178053       13.035741
  H           12.814581       17.136725       14.300528
  H           11.014685       17.077279       14.197854
  C           30.766043       23.889079       39.643435
  O           31.603219       22.843508       40.153060
  C           32.722823       22.636579       39.420826
  O           33.040363       23.242856       38.408257
  O           33.430502       21.632116       40.002844
  C           34.634377       21.311181       39.324473
  H           30.414876       23.646819       38.634826
  H           29.895951       23.981516       40.299937
  H           31.297371       24.842593       39.642162
  H           35.123667       20.489708       39.865008
  H           34.421235       20.964095       38.303198
  H           35.308332       22.168737       39.310967
  C           19.751369        2.921583        1.890132
  O           20.371312        3.756166        2.876510
  C           21.446718        4.437113        2.415737
  O           21.900045        4.380810        1.282148
  O           21.940280        5.190003        3.434585
  C           23.081654        5.954921        3.081502
  H           20.450729        2.157442        1.534767
  H           18.897156        2.419977        2.354148
  H           19.384836        3.519808        1.053902
  H           23.405274        6.516660        3.968136
  H           23.908531        5.296870        2.777949
  H           22.838788        6.664676        2.289629
  C           20.609961        6.463638       34.906321
  O           20.707104        6.267804       33.489983
  C           21.766099        5.512026       33.116047
  O           22.599344        5.023605       33.864946
  O           21.746816        5.395675       31.761577
  C           22.815864        4.624603       31.237092
  H           21.492564        6.989273       35.285821
  H           19.727922        7.078696       35.107097
  H           20.486117        5.508594       35.420181
  H           22.714905        4.598063       30.143701
  H           23.782155        5.091607       31.476027
  H           22.774052        3.602286       31.615139
  C            7.605912        6.017138       39.306005
  O            8.653861        6.989943       39.402191
  C            8.945623        7.594208       38.226504
  O            8.409861        7.368841       37.151391
  O            9.943378        8.491107       38.446862
  C           10.349222        9.194513       37.283672
  H            7.889910        5.208388       38.624413
  H            7.442509        5.590671       40.300000
  H            6.675815        6.483464       38.975915
  H           11.158055        9.882630       37.564182
  H           10.743990        8.498409       36.529685
  H            9.521206        9.777748       36.878670
  C            2.062318       22.998888        2.558171
  O            3.187455       23.863818        2.358761
  C            4.363294       23.206189        2.226757
  O            4.517163       21.994645        2.273508
  O            5.345673       24.127347        2.039941
  C            6.639140       23.563997        1.891347
  H            2.178134       22.419485        3.480222
  H            1.165823       23.619026        2.649422
  H            1.932305       22.331935        1.703905
  H            7.356546       24.384447        1.755003
  H            6.925930       23.011393        2.797592
  H            6.678515       22.918050        1.013279
  C           30.474428       37.225639       25.851818
  O           31.268267       38.388360       25.584054
  C           32.590915       38.208479       25.809322
  O           33.117260       37.181338       26.211371
  O           33.232700       39.370996       25.517488
  C           34.636084       39.317035       25.717740
  H           30.554728       36.936274       26.904966
  H           29.429348       37.468122       25.638254
  H           30.773060       36.397647       25.206257
  H           35.056405       40.299497       25.463775
  H           34.867862       39.112819       26.772953
  H           35.088504       38.566710       25.068024
  C           32.037218       35.051352       13.574648
  O           32.322743       33.743581       13.062779
  C           31.865976       32.739779       13.847793
  O           31.269547       32.871245       14.906419
  O           32.191634       31.558724       13.258255
  C           31.770365       30.417929       13.988746
  H           32.517621       35.199597       14.547549
  H           32.439845       35.788582       12.873946
  H           30.959860       35.207403       13.654957
  H           32.085859       29.522121       13.437029
  H           32.251535       30.393078       14.977057
  H           30.683926       30.402600       14.084749
  C           16.107346       27.667075       24.583035
  O           17.003355       26.551103       24.657710
  C           18.281772       26.856475       24.333830
  O           18.692806       27.955932       23.993322
  O           19.029163       25.726294       24.446068
  C           20.399031       25.910772       24.126803
  H           16.063978       28.060996       23.562131
  H           15.107746       27.322822       24.863906
  H           16.408518       28.450905       25.280462
  H           20.910202       24.945210       24.239914
  H           20.511830       26.232473       23.081487
  H           20.858743       26.629397       24.806539
  C           14.971707       31.220404       14.403807
  O           16.147071       30.630458       14.973265
  C           17.221360       30.653037       14.149922
  O           17.247323       31.109181       13.016362
  O           18.265803       30.073829       14.799658
  C           19.461570       30.029458       14.037639
  H           14.662373       30.676697       13.504922
  H           14.165787       31.157570       15.140790
  H           15.142404       32.273186       14.171399
  H           20.235947       29.539925       14.643524
  H           19.316764       29.431131       13.126631
  H           19.798092       31.037392       13.791424
  C           16.628932        8.681874       36.009728
  O           16.674544        8.786301       34.581157
  C           15.502687        8.482856       33.975210
  O           14.473190        8.137305       34.535950
  O           15.670683        8.622222       32.633250
  C           14.508009        8.326511       31.876122
  H           16.398927        7.655815       36.315670
  H           17.613994        8.947989       36.403982
  H           15.895034        9.375630       36.423969
  H           14.748392        8.460412       30.812784
  H           14.206179        7.279810       32.025172
  H           13.695965        9.006305       32.137397
  C            2.252880        5.872912        3.992936
  O            1.483481        6.805213        4.762768
  C            2.060950        7.148529        5.937998
  O            3.128503        6.731117        6.362022
  O            1.244261        8.033466        6.569192
  C            1.736014        8.472068        7.825499
  H            2.382741        4.933241        4.540161
  H            1.709052        5.662154        3.067500
  H            3.223732        6.297530        3.730932
  H            1.005813        9.171867        8.253854
  H            1.837591        7.623896        8.517733
  H            2.687285        8.992175        7.705616
  C            1.595984       17.319278       15.143998
  O            1.434493       18.650776       15.648807
  C            1.829016       18.797001       16.935458
  O            2.278444       17.915522       17.652890
  O            1.632338       20.093488       17.294542
  C            2.004523       20.380465       18.633057
  H            0.988768       16.611404       15.718023
  H            1.255629       17.303712       14.104519
  H            2.646482       17.023469       15.165223
  H            1.800912       21.442577       18.825045
  H            1.401941       19.788267       19.336687
  H            3.069302       20.197722       18.783557
  C           38.420399       26.411580       35.258864
  O           37.437768       26.473981       36.300181
  C           36.346247       25.708446       36.065581
  O           36.154028       25.016534       35.076638
  O           35.496600       25.847628       37.117831
  C           34.301113       25.094155       36.992983
  H           38.005750       26.776013       34.313055
  H           39.258646       27.055608       35.540238
  H           38.794812       25.392885       35.142355
  H           33.684455       25.280136       37.882670
  H           33.729870       25.419758       36.111755
  H           34.522798       24.027442       36.940260
  C           38.135607       27.104269       28.509055
  O           37.551242       28.244285       29.151457
  C           37.815711       29.416114       28.527459
  O           38.488761       29.555096       27.516822
  O           37.208552       30.413697       29.223651
  C           37.413565       31.704627       28.672317
  H           39.227509       27.186626       28.492680
  H           37.864358       26.212424       29.081451
  H           37.747612       26.991910       27.494986
  H           36.893612       32.434774       29.307088
  H           38.483322       31.958634       28.671627
  H           36.999550       31.762503       27.664824
  C           24.044549       12.561073       38.773875
  O           24.164488       13.985449       38.671074
  C           22.976664       14.625593       38.562502
  O           21.875495       14.095910       38.538755
  O           23.220577       15.960416       38.477327
  C           22.048902       16.750600       38.353687
  H           23.570284       12.146907       37.877862
  H           25.049740       12.138302       38.860225
  H           23.478759       12.284973       39.665588
  H           22.351885       17.804076       38.284482
  H           21.505650       16.493993       37.432856
  H           21.409404       16.629412       39.228990
  C           18.823162        3.745336       15.814700
  O           18.110757        3.864154       14.576895
  C           18.891500        4.225303       13.531662
  O           20.091665        4.451702       13.576900
  O           18.108055        4.299592       12.422971
  C           18.809890        4.676712       11.249214
  H           19.267038        4.705110       16.099493
  H           18.112453        3.448633       16.591526
  H           19.594290        2.976043       15.743637
  H           18.092351        4.715339       10.418524
  H           19.246315        5.679141       11.365706
  H           19.580306        3.942696       11.009465
  C           26.654733       21.941273       25.907634
  O           25.880012       20.946605       26.588988
  C           25.861818       19.746827       25.962330
  O           26.423263       19.477919       24.910584
  O           25.104657       18.893546       26.702004
  C           25.000238       17.591972       26.147477
  H           26.242846       22.137834       24.912138
  H           26.611064       22.866761       26.489155
  H           27.698999       21.632398       25.832765
  H           24.367025       16.986963       26.810353
  H           24.516743       17.630433       25.160738
  H           25.982574       17.122496       26.081085
  C           15.507788       26.978591        6.775960
  O           16.806236       26.372420        6.795649
  C           16.776133       25.019382        6.765942
  O           15.771276       24.324412        6.734671
  O           18.057865       24.566239        6.783944
  C           18.166347       23.151956        6.760812
  H           14.927796       26.679878        7.655551
  H           15.636686       28.064620        6.798892
  H           14.973354       26.716045        5.861111
  H           19.232644       22.889698        6.785941
  H           17.689486       22.713655        7.649291
  H           17.730271       22.747899        5.846276
  C           35.333175       21.007829        5.825384
  O           35.858667       21.426944        4.559682
  C           37.210797       21.480072        4.521996
  O           37.965380       21.217739        5.446921
  O           37.584830       21.882763        3.278437
  C           38.989374       21.984682        3.107063
  H           35.620102       21.709999        6.615276
  H           34.241649       20.993346        5.754942
  H           35.674306       20.000242        6.070123
  H           39.185653       22.321794        2.080306
  H           39.408815       22.733240        3.794544
  H           39.465666       21.014069        3.251480
  C            5.960410        8.008260       25.905393
  O            5.942966        7.462844       24.580245
  C            4.828836        7.774864       23.877496
  O            3.889565        8.444407       24.281454
  O            4.931928        7.208489       22.645793
  C            3.816894        7.457837       21.804945
  H            5.124142        7.618567       26.495389
  H            6.894628        7.706097       26.387610
  H            5.927912        9.098886       25.874092
  H            3.992938        6.955057       20.844413
  H            2.900777        7.037036       22.243758
  H            3.704776        8.527350       21.622268
  C           23.277488       27.208597       33.330012
  O           23.071255       27.470677       31.936246
  C           21.818612       27.890082       31.640467
  O           20.905218       28.041100       32.438342
  O           21.749785       28.107919       30.300202
  C           20.477167       28.550027       29.855812
  H           22.612682       26.410185       33.676237
  H           24.312189       26.881260       33.467282
  H           23.123298       28.114117       33.919722
  H           20.523432       28.688206       28.767158
  H           19.709471       27.792043       30.067950
  H           20.219206       29.504325       30.316867
  C           34.226796       26.394691        4.711155
  O           34.676286       26.010008        6.016444
  C           35.810167       25.270613        6.006024
  O           36.431679       24.923806        5.012470
  O           36.134875       24.974120        7.292553
  C           37.311359       24.191928        7.421250
  H           33.994431       25.511983        4.106066
  H           33.314006       26.986833        4.824216
  H           34.975947       27.011620        4.211485
  H           37.481120       24.001715        8.489613
  H           37.185997       23.220958        6.920849
  H           38.174084       24.726677        7.021815
  C           19.217461       31.003598       17.641330
  O           17.899536       31.565759       17.670490
  C           17.511266       31.980152       18.899321
  O           18.171040       31.901030       19.925059
  O           16.256604       32.493778       18.796792
  C           15.726980       32.963112       20.026313
  H           19.273890       30.116017       18.280326
  H           19.439191       30.704247       16.612824
  H           19.958936       31.742509       17.950725
  H           14.715290       33.347577       19.839039
  H           15.647029       32.140377       20.751306
  H           16.338990       33.773710       20.424024
  C           19.919854       36.808293        9.145510
  O           19.630426       37.113568        7.775532
  C           18.724838       38.107440        7.618600
  O           18.165586       38.717371        8.518002
  O           18.539331       38.305593        6.286376
  C           17.601975       39.326480        5.983632
  H           19.018208       36.466668        9.664768
  H           20.658579       36.001826        9.167772
  H           20.344723       37.676467        9.652718
  H           17.518640       39.402013        4.891044
  H           16.609611       39.069642        6.381311
  H           17.940501       40.287171        6.373855
  C            5.539979       28.638462        1.718311
  O            5.236730       29.890134        2.346926
  C            6.156771       30.277392        3.261286
  O            7.164136       29.659049        3.572041
  O            5.762868       31.470852        3.779933
  C            6.645884       31.988596        4.762137
  H            5.573933       27.831885        2.458298
  H            4.746280       28.415356        0.999376
  H            6.486030       28.697847        1.177054
  H            6.237455       32.942927        5.121075
  H            6.711856       31.304941        5.620719
  H            7.632342       32.171499        4.334064
  C            5.453758        7.529122       12.673839
  O            4.651353        6.689889       11.833819
  C            3.569086        6.169361       12.458518
  O            3.257566        6.351969       13.626126
  O            2.891449        5.401913       11.563906
  C            1.728749        4.789671       12.098499
  H            5.850901        6.961445       13.521966
  H            6.295142        7.901373       12.082145
  H            4.877027        8.386096       13.026652
  H            1.261640        4.190394       11.305355
  H            1.993650        4.111822       12.922664
  H            1.014737        5.544623       12.430212
  C            1.795298       21.190066       26.513379
  O            2.724409       20.266751       25.931965
  C            2.170597       19.444714       25.009985
  O            0.996747       19.435202       24.669858
  O            3.145103       18.625883       24.532118
  C            2.691012       17.704522       23.553653
  H            0.997157       20.656147       27.039878
  H            2.334437       21.807916       27.237389
  H            1.374065       21.846028       25.749326
  H            3.545007       17.089013       23.240218
  H            1.929400       17.034719       23.978166
  H            2.302786       18.230991       22.680778
  C           13.312267       19.048179       30.302704
  O           13.978583       19.948692       29.408892
  C           13.326376       20.135267       28.237434
  O           12.273204       19.608316       27.910552
  O           14.049358       21.005576       27.483539
  C           13.472198       21.284418       26.217982
  H           13.224983       18.052518       29.855111
  H           13.910416       18.966318       31.214909
  H           12.326446       19.431462       30.572428
  H           14.131160       21.985225       25.687850
  H           13.400147       20.367151       25.616043
  H           12.492784       21.749767       26.336299
  C            4.513484        9.802743       31.127171
  O            4.542825       11.200639       30.812805
  C            3.388151       11.847261       31.097599
  O            2.380066       11.341962       31.568913
  O            3.541109       13.155886       30.762032
  C            2.391117       13.949160       31.008473
  H            3.740569        9.291019       30.544040
  H            5.485034        9.372868       30.866600
  H            4.346796        9.650974       32.195198
  H            2.612818       14.979394       30.698848
  H            1.540468       13.592131       30.410287
  H            2.145691       13.950600       32.071282
  C           35.565364        6.519733        7.888384
  O           34.923648        5.334827        7.400534
  C           33.571667        5.395654        7.431308
  O           32.904619        6.337442        7.833531
  O           33.083302        4.224302        6.943522
  C           31.666389        4.156792        6.926198
  H           35.304689        6.697263        8.937113
  H           36.647583        6.375580        7.820396
  H           35.295587        7.383626        7.278131
  H           31.374997        3.176398        6.525799
  H           31.263545        4.238671        7.945959
  H           31.252446        4.932907        6.281143
  C           31.851558       25.056885       29.120816
  O           30.798343       25.886018       29.627844
  C           29.677200       25.866995       28.869440
  O           29.519983       25.232477       27.836788
  O           28.757621       26.681866       29.451556
  C           27.528525       26.754793       28.746924
  H           32.165225       25.393936       28.127181
  H           32.706210       25.136241       29.798955
  H           31.537274       24.012124       29.086178
  H           26.862378       27.438729       29.289953
  H           27.685216       27.165002       27.738918
  H           27.054665       25.773535       28.698045
  C           21.536082       15.661543       28.550526
  O           21.381531       16.994825       28.048258
  C           20.595757       17.780426       28.821492
  O           20.036250       17.441360       29.853812
  O           20.530617       19.011093       28.247281
  C           19.726883       19.935689       28.962567
  H           20.568391       15.150974       28.597366
  H           22.185344       15.110319       27.864078
  H           22.008195       15.672387       29.534646
  H           19.732879       20.888804       28.416733
  H           18.686822       19.583003       29.015356
  H           20.131411       20.104378       29.961417
  C            3.961108       14.862484       11.452072
  O            5.118504       14.097023       11.810267
  C            4.841400       12.814896       12.144726
  O            3.731833       12.303011       12.167843
  O            6.010872       12.196056       12.457570
  C            5.857551       10.836790       12.833588
  H            3.262498       14.924408       12.293149
  H            4.286143       15.875314       11.196869
  H            3.467951       14.430581       10.579287
  H            6.850797       10.433279       13.072422
  H            5.233332       10.753664       13.734887
  H            5.434493       10.256261       12.012730
  C           21.825264       12.350346       15.134511
  O           20.663432       11.573578       15.451650
  C           19.537007       12.001825       14.834987
  O           19.452385       12.957416       14.077766
  O           18.513505       11.188847       15.209167
  C           17.265164       11.535701       14.631382
  H           21.694767       13.389850       15.453420
  H           22.677600       11.927227       15.674042
  H           22.039599       12.304836       14.065171
  H           16.509032       10.829404       14.999906
  H           16.963498       12.546325       14.942086
  H           17.310678       11.460538       13.544147
  C           20.349700       26.828799       36.892166
  O           21.357378       26.121310       37.625546
  C           22.542347       26.033556       36.976972
  O           22.788712       26.484684       35.868149
  O           23.410073       25.350182       37.769784
  C           24.698203       25.183361       37.199353
  H           20.128989       26.319754       35.947994
  H           19.437717       26.848971       37.495887
  H           20.660017       27.858514       36.705377
  H           25.316341       24.616908       37.908884
  H           24.635528       24.603101       36.267543
  H           25.169080       26.151447       37.023615
  C           13.553581       24.368374        8.049638
  O           13.570361       22.972249        7.726600
  C           13.400076       22.163149        8.798449
  O           13.251238       22.526841        9.955719
  O           13.430176       20.874510        8.366008
  C           13.266482       19.918404        9.401172
  H           14.370136       24.616730        8.735828
  H           13.694169       24.935385        7.124795
  H           12.592967       24.652451        8.483251
  H           13.313429       18.916762        8.952943
  H           14.082227       19.999332       10.133914
  H           12.296121       20.037860        9.884835
  C           33.563324       20.939123       16.115725
  O           32.462694       21.584296       15.462912
  C           31.833794       22.501796       16.234391
  O           32.122801       22.790113       17.386366
  O           30.819679       23.042874       15.508233
  C           30.072222       24.023716       16.209486
  H           33.221654       20.391895       17.000657
  H           34.004950       20.223923       15.415686
  H           34.328945       21.666855       16.390916
  H           29.278682       24.390067       15.544292
  H           29.593582       23.583430       17.096025
  H           30.708169       24.864899       16.488380
  C           11.235303       26.243662       31.121018
  O           11.946895       25.708752       29.997938
  C           13.183582       26.234928       29.835938
  O           13.696446       27.092526       30.539640
  O           13.754696       25.649177       28.750017
  C           15.062417       26.120017       28.465984
  H           11.081158       27.321538       31.003881
  H           10.256652       25.757338       31.169313
  H           11.768212       26.034654       32.050439
  H           15.429313       25.594948       27.573745
  H           15.044922       27.196214       28.241496
  H           15.736513       25.907017       29.296661
  C            7.621693       21.224508        5.026697
  O            8.310229       20.628126        6.133063
  C            9.464688       20.011374        5.787602
  O            9.923883       19.928439        4.658017
  O           10.022366       19.493510        6.914239
  C           11.245091       18.810963        6.687144
  H            7.337951       20.463749        4.291826
  H            6.710559       21.697008        5.405088
  H            8.237953       21.994213        4.558426
  H           11.606854       18.426522        7.650333
  H           11.089545       17.952778        6.017649
  H           11.994903       19.490662        6.280215
  C           37.085437       33.468063       21.325901
  O           35.764059       33.293960       20.799166
  C           34.785794       33.728293       21.627931
  O           34.948883       34.221264       22.734314
  O           33.588823       33.514900       21.019470
  C           32.471859       33.925516       21.791666
  H           37.211558       32.896536       22.251510
  H           37.800323       33.093270       20.587613
  H           37.295037       34.525031       21.500219
  H           31.560364       33.704800       21.219948
  H           32.425092       33.360405       22.733665
  H           32.510774       34.998586       21.983517
  C           33.220154       32.599624       25.231062
  O           34.276387       33.376196       24.652178
  C           34.830872       34.265675       25.508843
  O           34.500624       34.443474       26.672038
  O           35.814990       34.932748       24.849278
  C           36.477852       35.905824       25.640630
  H           32.397226       33.245735       25.554525
  H           32.841915       31.913437       24.467726
  H           33.591433       32.008183       26.070020
  H           37.242910       36.389880       25.018717
  H           35.771438       36.680653       25.971566
  H           36.969055       35.437257       26.494424
  C           17.933989       11.780579        7.511490
  O           18.797802       12.633752        8.272886
  C           18.300169       12.969651        9.486160
  O           17.221350       12.619444        9.941357
  O           19.205459       13.770374       10.108889
  C           18.799423       14.200003       11.398483
  H           16.979679       12.277904        7.308365
  H           18.421633       11.564189        6.556514
  H           17.767110       10.836255        8.032933
  H           19.589471       14.842535       11.810037
  H           17.877968       14.796409       11.334295
  H           18.664226       13.345881       12.063312
  C           17.010407       19.656661        4.640009
  O           17.519947       18.618847        5.486833
  C           16.983920       18.617900        6.729884
  O           16.149861       19.405018        7.152366
  O           17.539190       17.593414        7.430314
  C           17.062162       17.484370        8.761875
  H           17.238120       20.643303        5.057123
  H           17.497851       19.572501        3.664348
  H           15.934234       19.543797        4.496439
  H           17.573849       16.638739        9.240921
  H           17.302225       18.392408        9.333484
  H           15.988580       17.291656        8.771005
  C           35.085652       15.085385       29.977481
  O           36.438725       14.932310       29.530760
  C           37.196524       14.159433       30.343719
  O           36.823779       13.624091       31.377243
  O           38.447113       14.087059       29.815242
  C           39.348528       13.303436       30.580674
  H           35.054405       15.573611       30.957256
  H           34.557352       15.718238       29.258456
  H           34.581205       14.118247       30.018429
  H           40.324783       13.314734       30.077485
  H           39.480056       13.735230       31.583248
  H           39.001996       12.271126       30.644334
  C           10.129521       24.376213       14.793721
  O            9.810728       24.534880       16.181884
  C           10.769447       25.175498       16.891086
  O           11.829834       25.593441       16.449949
  O           10.351847       25.267715       18.181670
  C           11.275933       25.919731       19.038081
  H           11.035552       23.773410       14.671100
  H            9.298810       23.854921       14.309187
  H           10.251657       25.348297       14.312436
  H           10.851834       25.935541       20.051141
  H           12.224063       25.364378       19.077251
  H           11.440796       26.948115       18.713973
  C           30.026656       11.559677        4.935331
  O           30.869197       12.134170        5.942249
  C           30.243294       12.337224        7.125261
  O           29.072838       12.085047        7.370494
  O           31.140475       12.877152        7.992466
  C           30.604988       13.145029        9.278543
  H           29.184815       12.223007        4.710395
  H           30.619530       11.432028        4.024943
  H           29.664532       10.578854        5.248942
  H           31.400433       13.583142        9.896383
  H           29.787313       13.877014        9.211412
  H           30.264082       12.223654        9.752516
  C            4.694649       11.167491       22.728415
  O            5.577780       12.092363       23.375326
  C            6.564096       11.497184       24.086271
  O            6.732663       10.293128       24.210909
  O            7.331604       12.470977       24.644086
  C            8.407021       11.976075       25.425781
  H            4.184646       10.538831       23.465967
  H            3.940306       11.740248       22.181134
  H            5.240327       10.548594       22.013781
  H            8.956468       12.834537       25.835111
  H            8.028992       11.382738       26.270735
  H            9.089481       11.387141       24.811611
  C           30.994930       28.829793       11.147801
  O           32.388553       29.130970       11.292398
  C           32.763467       30.280180       10.683091
  O           32.033605       31.026896       10.047940
  O           34.094918       30.457067       10.893920
  C           34.618487       31.633169       10.297968
  H           30.734677       28.699121       10.092106
  H           30.791092       27.892191       11.673112
  H           30.382253       29.614114       11.596096
  H           35.693621       31.679219       10.517894
  H           34.498148       31.598830        9.205613
  H           34.140039       32.520690       10.714133
  C           31.782509       16.244048        9.281140
  O           31.123314       15.727170        8.118342
  C           31.627784       16.195774        6.952829
  O           32.548526       16.991174        6.837613
  O           30.928153       15.633677        5.931525
  C           31.358082       16.049224        4.645063
  H           31.677139       17.332813        9.333944
  H           31.309300       15.807265       10.165387
  H           32.837448       15.963689        9.283119
  H           30.729836       15.548995        3.895745
  H           31.226854       17.134358        4.526059
  H           32.396710       15.762283        4.475606
  C           34.774127       28.506327       13.210988
  O           33.823942       27.617676       12.609949
  C           32.905762       27.133460       13.478845
  O           32.845859       27.384402       14.673475
  O           32.064951       26.313418       12.793960
  C           31.050383       25.732197       13.597287
  H           35.349646       27.990425       13.986824
  H           35.465959       28.844129       12.433905
  H           34.273200       29.381840       13.628179
  H           30.434433       25.086345       12.957067
  H           31.493136       25.104705       14.384131
  H           30.412257       26.504417       14.028878
  C           21.714465       33.203214       16.348935
  O           20.318850       33.428299       16.584295
  C           20.065265       34.168334       17.689077
  O           20.901289       34.621206       18.456977
  O           18.718273       34.315204       17.801076
  C           18.316182       35.073651       18.930492
  H           22.162910       32.649651       17.180660
  H           21.815881       32.603725       15.439579
  H           22.237335       34.149116       16.196046
  H           17.219112       35.126770       18.934555
  H           18.634076       34.579947       19.860061
  H           18.713284       36.087980       18.873521
  C           26.028824       31.231040       12.820984
  C           26.199907       29.777917       12.442879
  O           25.101147       29.332114       11.644764
  C           24.022546       28.885990       12.342040
  O           23.917927       28.830441       13.551283
  O           23.077712       28.506643       11.446504
  C           21.880013       28.008446       12.043261
  H           25.906342       31.852206       11.922067
  H           26.901706       31.592534       13.381252
  H           25.140770       31.379224       13.432295
  H           27.109517       29.658586       11.829878
  H           26.341340       29.145437       13.331172
  H           22.088582       27.111526       12.645784
  H           21.191351       27.730902       11.242128
  H           21.405605       28.779844       12.653410
  C            5.998337        8.394563        8.470822
  C            5.842312        8.670823        6.993278
  O            6.174400       10.029045        6.696711
  C            5.154821       10.917808        6.835123
  O            4.016426       10.662552        7.174537
  O            5.631544       12.147951        6.521940
  C            4.659283       13.188988        6.620681
  H            7.016303        8.641977        8.804635
  H            5.804099        7.336179        8.691266
  H            5.314662        9.001237        9.061444
  H            6.542591        8.038291        6.421515
  H            4.833743        8.411532        6.640212
  H            3.826476       13.011988        5.923471
  H            5.140910       14.130575        6.347646
  H            4.291468       13.274691        7.645263
  C           16.118973       16.482709       16.609044
  C           15.881289       15.145826       17.272408
  O           16.959845       14.820986       18.152291
  C           18.015007       14.193659       17.567745
  O           18.114306       13.889410       16.395622
  O           18.943109       13.960651       18.528439
  C           20.115035       13.297284       18.053744
  H           16.272172       17.266876       17.364366
  H           15.262642       16.762899       15.980799
  H           17.011632       16.462901       15.986896
  H           14.968443       15.195191       17.890207
  H           15.708656       14.353616       16.529642
  H           19.863656       12.307420       17.643893
  H           20.791774       13.156505       18.899501
  H           20.623495       13.906343       17.303468
  C           25.135079        3.423157        5.993740
  C           25.460865        3.972711        7.363285
  O           24.940233        5.295471        7.512449
  C           25.751804        6.290821        7.066099
  O           26.852848        6.156103        6.570263
  O           25.115944        7.469910        7.275936
  C           25.860311        8.613146        6.854355
  H           24.050710        3.451378        5.814165
  H           25.479642        2.384470        5.899374
  H           25.602079        4.014398        5.208472
  H           24.979489        3.350511        8.136942
  H           26.541131        3.934860        7.565006
  H           26.807041        8.688579        7.410244
  H           25.265156        9.503744        7.068193
  H           26.047658        8.574061        5.779286
  C           25.929893       29.273720       38.630148
  C           25.287656       30.393348       39.416128
  O           24.134120       29.920910       40.115525
  C           22.977173       29.937220       39.401517
  O           22.842894       30.313467       38.254038
  O           21.990233       29.460909       40.200063
  C           20.706398       29.424505       39.576170
  H           26.177321       28.430464       39.290904
  H           26.851278       29.619640       38.142408
  H           25.257383       28.890500       37.865184
  H           25.993974       30.764357       40.178275
  H           25.050110       31.252017       38.771645
  H           20.385099       30.436266       39.286156
  H           19.988474       29.030728       40.299098
  H           20.720053       28.761815       38.708382
  C           32.008556       22.052311       32.435203
  C           33.134374       22.548147       31.557432
  O           33.845309       21.450103       30.981352
  C           34.845592       20.941399       31.748982
  O           35.180773       21.332833       32.849315
  O           35.411745       19.915801       31.066180
  C           36.489591       19.283993       31.757459
  H           31.337562       21.392345       31.866772
  H           31.422637       22.893919       32.828770
  H           32.387007       21.472666       33.274897
  H           32.720869       23.135873       30.720180
  H           33.804930       23.224177       32.107376
  H           37.306130       19.998215       31.942258
  H           36.873606       18.480064       31.125533
  H           36.140559       18.847736       32.695679
  C           10.397805       31.960163       31.796264
  C            9.844382       32.614621       33.040936
  O           10.249912       33.983301       33.113474
  C           11.458316       34.198868       33.698189
  O           12.199443       33.351941       34.156169
  O           11.692934       35.534304       33.685380
  C           12.937087       35.910116       34.276691
  H           10.093838       32.517974       30.898850
  H           10.036246       30.926853       31.706573
  H           11.485906       31.945374       31.807077
  H            8.741657       32.609414       33.003926
  H           10.125305       32.057868       33.946589
  H           12.968712       35.617900       35.337168
  H           13.026614       36.997131       34.217672
  H           13.771509       35.465639       33.730266
  C           27.642535        7.125869       23.445473
  C           28.713708        7.296207       24.497792
  O           28.876659        8.676270       24.832266
  C           29.735453        9.367372       24.036369
  O           30.362533        8.923359       23.095135
  O           29.774382       10.647580       24.481511
  C           30.647577       11.494952       23.734322
  H           26.695997        7.572804       23.781945
  H           27.472222        6.061851       23.232494
  H           27.916306        7.624085       22.517502
  H           28.411061        6.776590       25.422889
  H           29.662662        6.838408       24.183141
  H           31.685379       11.133571       23.792377
  H           30.607575       12.494769       24.172346
  H           30.321033       11.561202       22.694427
  C           12.133895       31.242571        9.039013
  C           12.497750       32.316053       10.038535
  O           11.322253       32.867743       10.635901
  C           10.748093       33.889896        9.947321
  O           11.140803       34.364518        8.900032
  O            9.654657       34.293964       10.639944
  C            8.948544       35.374690       10.029834
  H           11.520853       30.463638        9.514769
  H           13.037142       30.774358        8.624982
  H           11.548106       31.649145        8.216912
  H           13.094857       31.875681       10.855196
  H           13.126255       33.094151        9.581758
  H            9.590551       36.265033        9.951631
  H            8.093935       35.622686       10.663271
  H            8.574918       35.082392        9.046287
  C            6.911566        8.681280       15.301772
  C            6.717696        7.470004       16.184396
  O            7.979517        6.931647       16.585620
  C            8.533181        6.044599       15.716597
  O            8.057903        5.676798       14.660598
  O            9.715446        5.634929       16.239109
  C           10.411786        4.689360       15.426822
  H            7.527278        9.436151       15.811644
  H            5.944315        9.133249       15.043608
  H            7.427893        8.420897       14.379868
  H            6.187653        7.763731       17.106447
  H            6.088620        6.712545       15.694888
  H            9.816140        3.773120       15.297552
  H           11.341871        4.424934       15.934878
  H           10.660957        5.126026       14.457473
  C           37.765597       38.385850       29.482705
  C           36.592808       37.434124       29.533525
  O           35.471429       38.049785       30.171075
  C           35.445706       37.943599       31.526310
  O           36.268380       37.381369       32.221584
  O           34.331318       38.575429       31.970754
  C           34.171407       38.539943       33.389193
  H           37.481700       39.322217       28.981189
  H           38.607339       37.937125       28.938079
  H           38.103650       38.651411       30.482454
  H           36.277049       37.179195       28.507510
  H           36.866007       36.485075       30.017021
  H           34.081106       37.502679       33.745466
  H           33.250191       39.070311       33.640531
  H           35.004863       39.044690       33.882123
  C           20.014222       31.307191        5.664265
  C           19.683692       29.981393        5.018656
  O           20.875104       29.319962        4.587325
  C           21.311680       29.664371        3.346606
  O           20.787447       30.459798        2.592434
  O           22.440480       28.957195        3.093002
  C           23.012142       29.217767        1.810776
  H           20.719904       31.166683        6.495631
  H           19.106038       31.788087        6.052132
  H           20.488350       31.984794        4.956906
  H           19.199941       29.319444        5.757038
  H           18.964593       30.103243        4.195766
  H           22.310068       28.945419        1.008331
  H           23.907861       28.601376        1.706609
  H           23.304134       30.266612        1.726719
  C            4.659569        8.369236       35.822335
  C            3.686032        9.226894       35.047448
  O            4.217553       10.538776       34.848827
  C            3.982318       11.417807       35.859060
  O            3.371570       11.191373       36.884738
  O            4.548450       12.601973       35.518699
  C            4.375109       13.629388       36.495003
  H            5.634094        8.335862       35.314313
  H            4.280232        7.343227       35.921877
  H            4.834843        8.770578       36.818580
  H            3.524250        8.792495       34.046187
  H            2.700406        9.255961       35.534065
  H            3.307150       13.848348       36.645075
  H            4.862184       14.534612       36.125641
  H            4.845776       13.345553       37.438565
  C           15.112746       19.585444       19.873693
  C           16.564527       19.773946       19.498726
  O           17.372231       18.747165       20.078669
  C           17.804489       18.995716       21.343571
  O           17.573844       19.990250       22.002362
  O           18.547326       17.934400       21.744072
  C           19.074200       18.060910       23.065132
  H           14.764502       18.585019       19.579115
  H           14.482458       20.336481       19.378536
  H           14.967610       19.667869       20.949073
  H           16.678955       19.690979       18.404458
  H           16.923042       20.777094       19.771234
  H           19.744920       18.930483       23.135685
  H           19.653588       17.161986       23.287271
  H           18.265682       18.138646       23.794965
  C           17.778015       19.300246       12.020154
  C           18.687584       20.312504       11.363025
  O           18.908285       19.976190        9.991463
  C           19.930435       19.108619        9.765345
  O           20.655161       18.613047       10.605274
  O           20.004166       18.893929        8.428531
  C           21.045675       17.996942        8.041914
  H           16.830414       19.217131       11.468751
  H           17.557037       19.590674       13.056166
  H           18.228324       18.309560       12.028003
  H           18.207544       21.305886       11.375395
  H           19.633387       20.420030       11.913475
  H           22.030290       18.396091        8.328643
  H           21.020203       17.895291        6.954662
  H           20.886825       17.011097        8.483815
  C           19.020927       27.221309        8.838344
  C           19.496825       28.653359        8.919302
  O           18.702969       29.396557        9.846906
  C           17.569243       29.942179        9.331577
  O           17.186890       29.858862        8.181288
  O           16.936253       30.604525       10.331188
  C           15.720415       31.236176        9.929247
  H           19.024961       26.756052        9.834547
  H           19.668192       26.633326        8.173646
  H           18.000130       27.163751        8.465568
  H           20.534304       28.679009        9.293973
  H           19.515232       29.127467        7.927343
  H           15.912064       31.992320        9.153027
  H           15.294859       31.739226       10.800419
  H           15.001669       30.494557        9.574557
  C           12.757885       25.816935       23.196434
  C           11.329698       25.939597       23.675013
  O           10.975183       27.312311       23.856607
  C           11.287350       27.834923       25.072349
  O           11.821880       27.249841       25.993357
  O           10.891531       29.131790       25.080330
  C           11.155862       29.811141       26.308097
  H           12.907290       26.396486       22.274101
  H           13.012336       24.767261       22.996590
  H           13.457272       26.207377       23.933124
  H           10.646049       25.531147       22.911343
  H           11.159728       25.350667       24.587905
  H           10.616005       29.335585       27.140804
  H           10.799627       30.839134       26.211007
  H           12.228777       29.836025       26.509675
  C           15.128069       29.779131       17.464189
  C           14.081216       29.123970       18.335202
  O           14.505821       27.820374       18.739367
  C           14.214247       26.819876       17.866105
  O           13.635238       26.935207       16.804150
  O           14.681707       25.660855       18.392178
  C           14.439792       24.514497       17.576003
  H           16.096171       29.814523       17.984213
  H           14.831579       30.804290       17.204106
  H           15.283017       29.220493       16.543204
  H           13.942252       29.714925       19.256539
  H           13.102134       29.096883       17.835438
  H           13.359786       24.357052       17.435295
  H           14.849984       23.640790       18.087352
  H           14.942331       24.616787       16.611954
  C           19.819562       23.682247        9.572519
  C           20.550329       23.391509       10.862965
  O           21.939566       23.703053       10.736628
  C           22.712624       22.706241       10.229334
  O           22.335004       21.602693        9.888916
  O           23.989335       23.159460       10.172756
  C           24.920441       22.207023        9.658259
  H           19.971423       24.728308        9.269875
  H           18.741964       23.502749        9.686811
  H           20.188771       23.060097        8.759553
  H           20.150991       24.031781       11.667938
  H           20.393607       22.352943       11.188417
  H           24.955998       21.312034       10.297579
  H           25.911129       22.667061        9.656855
  H           24.664915       21.936403        8.631676
  C           29.973857        8.177364       19.899806
  C           28.979073        7.891276       18.798734
  O           29.511560        8.270095       17.527533
  C           29.317633        9.570977       17.183004
  O           28.741978       10.413726       17.842318
  O           29.878908        9.765297       15.964066
  C           29.746577       11.098671       15.470709
  H           30.929648        7.672966       19.697455
  H           29.591775        7.829736       20.869171
  H           30.186658        9.242001       19.974396
  H           28.779369        6.807169       18.751519
  H           28.011407        8.374944       18.995676
  H           28.685977       11.366261       15.350202
  H           30.226058       11.147308       14.490488
  H           30.248389       11.805262       16.135024
  C            7.279024       21.711382       12.234480
  C            8.332247       20.673906       11.921168
  O            8.050930       19.448765       12.601528
  C            8.536151       19.365736       13.868914
  O            9.174971       20.217703       14.454031
  O            8.184332       18.155580       14.369260
  C            8.635042       17.927030       15.704710
  H            6.277532       21.332907       11.984139
  H            7.458831       22.632727       11.664135
  H            7.269071       21.957978       13.294382
  H            8.322172       20.449357       10.840948
  H            9.341960       21.044424       12.149851
  H            9.733932       17.956166       15.755613
  H            8.303885       16.931714       16.009308
  H            8.198886       18.659086       16.387544
  C           21.549779       30.803856       32.929594
  C           20.127154       30.507534       33.344482
  O           19.318696       30.218676       32.201697
  C           18.773506       31.303184       31.589153
  O           18.906667       32.463574       31.923911
  O           18.045891       30.861260       30.533748
  C           17.407043       31.901823       29.793545
  H           21.963248       29.969690       32.344692
  H           22.186295       30.964615       33.810221
  H           21.602165       31.689626       32.299542
  H           20.106922       29.609792       33.985614
  H           19.705160       31.325690       33.945848
  H           16.696500       32.452196       30.428541
  H           16.849982       31.442761       28.973761
  H           18.148632       32.581132       29.368121
  C           33.754593       30.857789       21.842233
  C           34.568805       30.339329       20.679452
  O           35.058268       31.421737       19.884582
  C           34.207436       31.862708       18.920098
  O           33.100153       31.424158       18.679475
  O           34.815637       32.882341       18.265086
  C           34.031558       33.445110       17.212798
  H           34.345748       31.563371       22.443557
  H           33.430092       30.031408       22.488988
  H           32.872280       31.394832       21.499584
  H           35.451358       29.795688       21.057546
  H           33.996642       29.618278       20.077941
  H           33.814709       32.690413       16.441818
  H           34.608832       34.249887       16.752159
  H           33.105683       33.868058       17.608109
  C            7.121969        2.038523       31.666665
  C            5.750630        2.123530       31.037376
  O            5.321766        3.483907       30.945461
  C            4.698450        3.970423       32.051525
  O            4.476355        3.363169       33.080221
  O            4.361021        5.260159       31.803888
  C            3.689348        5.902184       32.888074
  H            7.842888        2.650657       31.105891
  H            7.479577        1.000060       31.681160
  H            7.113082        2.414775       32.687770
  H            5.790063        1.730418       30.007177
  H            5.021531        1.502025       31.577048
  H            2.742155        5.391043       33.117336
  H            3.461805        6.927324       32.587388
  H            4.331229        5.936598       33.770800
  C           36.266780       21.986862       22.436599
  C           35.079403       21.978116       21.501794
  O           34.942253       23.242491       20.849456
  C           34.226859       24.173256       21.535377
  O           33.704446       24.024528       22.622237
  O           34.193565       25.304214       20.788098
  C           33.465269       26.375173       21.389289
  H           37.183113       22.261432       21.894524
  H           36.411041       20.997502       22.891411
  H           36.138429       22.717400       23.232928
  H           35.235687       21.225324       20.710416
  H           34.157359       21.687891       22.025917
  H           32.412243       26.093762       21.540764
  H           33.497455       27.230709       20.710965
  H           33.924918       26.668320       22.335432
  C           30.801065        7.840776        2.811422
  C           30.974189        6.532276        2.075448
  O           29.796961        5.729828        2.190395
  C           29.737073        4.945305        3.299239
  O           30.577402        4.866304        4.173256
  O           28.569272        4.257450        3.258047
  C           28.372321        3.382319        4.368973
  H           29.912566        8.375140        2.445464
  H           31.680052        8.484592        2.672205
  H           30.657056        7.679174        3.877933
  H           31.123715        6.728370        1.000000
  H           31.869482        5.993725        2.418248
  H           29.161584        2.616387        4.406558
  H           27.411779        2.878856        4.238653
  H           28.340766        3.948136        5.302383
  C           22.307671       21.557874       22.337622
  C           23.426291       21.660711       23.348520
  O           24.636183       21.114442       22.818662
  C           24.787722       19.773599       22.985322
  O           24.007160       19.022267       23.535344
  O           25.972773       19.418014       22.430514
  C           26.267658       18.024931       22.536160
  H           22.592015       22.048536       21.395657
  H           21.393796       22.033086       22.719074
  H           22.083375       20.519958       22.099457
  H           23.626457       22.722117       23.573802
  H           23.150136       21.189520       24.302888
  H           26.335570       17.719777       23.591275
  H           27.236444       17.846076       22.064392
  H           25.514790       17.432456       22.012172
  C           39.343976       18.956474        5.767169
  C           38.221915       17.960336        5.947414
  O           38.230336       16.995489        4.892900
  C           37.551012       17.356990        3.771992
  O           36.949929       18.398344        3.597117
  O           37.657897       16.343689        2.877344
  C           36.982590       16.586462        1.642912
  H           40.312376       18.439867        5.702212
  H           39.377679       19.660956        6.609232
  H           39.225146       19.524462        4.846534
  H           38.366394       17.405158        6.889913
  H           37.247703       18.463216        6.031808
  H           35.902595       16.717452        1.808599
  H           37.127720       15.715866        0.999406
  H           37.403333       17.459999        1.140608
  C           35.540287       36.912777       36.765389
  C           35.100297       35.773706       37.655741
  O           36.178966       34.862833       37.878860
  C           36.323259       33.894210       36.935701
  O           35.629951       33.737949       35.950202
  O           37.381118       33.123861       37.290804
  C           37.649520       32.053930       36.384158
  H           36.415123       37.422420       37.194139
  H           34.731571       37.646026       36.643634
  H           35.832974       36.554983       35.780189
  H           34.804800       36.167374       38.643216
  H           34.214613       35.264608       37.248945
  H           36.792474       31.365911       36.328457
  H           38.511499       31.498280       36.760120
  H           37.895606       32.442662       35.393841
  C           30.344263       26.915521       33.552845
  C           31.042012       25.771048       34.250791
  O           32.435113       26.050136       34.406926
  C           33.216574       25.706401       33.348736
  O           32.843206       25.191912       32.313266
  O           34.496013       26.036080       33.653605
  C           35.435819       25.725148       32.624583
  H           30.507509       27.856892       34.096969
  H           29.263505       26.730521       33.487754
  H           30.730937       27.060064       32.545923
  H           30.625484       25.645456       35.264759
  H           30.873375       24.818590       33.727832
  H           35.452247       24.642941       32.425687
  H           36.427995       26.025716       32.968595
  H           35.204540       26.280210       31.713092
  C           29.899370        7.857353       27.261231
  C           30.573403        8.686732       28.329692
  O           31.878198        8.177506       28.614649
  C           31.922469        7.185847       29.543762
  O           30.975111        6.712704       30.139539
  O           33.218362        6.816374       29.694592
  C           33.416913        5.775636       30.651797
  H           30.521336        7.814857       26.355553
  H           28.922344        8.283752       26.996459
  H           29.750016        6.831340       27.591821
  H           30.705643        9.720847       27.968418
  H           29.955043        8.753430       29.236489
  H           33.086287        6.096810       31.651064
  H           34.485955        5.556352       30.698312
  H           32.892133        4.868049       30.346361
  C           34.554581       12.722208        4.799774
  C           34.333141       12.451104        3.329649
  O           34.421056       13.661848        2.575084
  C           33.264981       14.371407        2.482259
  O           32.192651       14.070038        2.967632
  O           33.517282       15.480667        1.744367
  C           32.380910       16.325378        1.560187
  H           35.518763       13.226204        4.958642
  H           34.549488       11.785336        5.373138
  H           33.784249       13.377234        5.202054
  H           35.124555       11.781149        2.952523
  H           33.380007       11.931038        3.155959
  H           31.581974       15.792374        1.022965
  H           32.688535       17.181583        0.955721
  H           32.017689       16.695054        2.521338
  C           35.245015        2.552623       31.381610
  C           35.111419        3.379403       32.639539
  O           36.351671        4.013552       32.959900
  C           37.209990        3.264728       33.702296
  O           37.016093        2.136563       34.109664
  O           38.327361        4.002962       33.914644
  C           39.323356        3.337005       34.691366
  H           35.606963        3.172400       30.548681
  H           34.277907        2.115076       31.099203
  H           35.963752        1.746015       31.512386
  H           34.373376        4.183598       32.478407
  H           34.733213        2.777050       33.478128
  H           38.938517        3.094311       35.693363
  H           40.173695        4.013094       34.805065
  H           39.666883        2.434121       34.182260
  C            8.674333       22.792204       21.313046
  C            8.802217       24.104026       20.573743
  O            9.003021       25.181841       21.490798
  C            7.866706       25.730499       21.997120
  O            6.727351       25.395901       21.739799
  O            8.228331       26.726898       22.842706
  C            7.125660       27.400486       23.450322
  H            9.554160       22.620235       21.949623
  H            8.582572       21.955417       20.607448
  H            7.804385       22.789326       21.966867
  H            9.687692       24.074586       19.916120
  H            7.937209       24.282195       19.918673
  H            6.493196       27.879406       22.687679
  H            7.522513       28.179411       24.105214
  H            6.538946       26.706964       24.056287
  C           29.233143       26.499457        8.591374
  C           29.742991       27.063429        7.285315
  O           29.672610       26.080297        6.250183
  C           30.749626       25.255247        6.161143
  O           31.741035       25.284911        6.862947
  O           30.525531       24.389211        5.142142
  C           31.586304       23.457423        4.929235
  H           28.210687       26.113056        8.472301
  H           29.227931       27.271426        9.372742
  H           29.848578       25.668704        8.931065
  H           29.103867       27.905817        6.970190
  H           30.758925       27.470232        7.392506
  H           32.518468       23.980887        4.668359
  H           31.309209       22.812731        4.092162
  H           31.730768       22.831931        5.812575
  C           19.352252       29.288360       21.867550
  C           19.221638       30.571922       22.654448
  O           20.453511       31.296759       22.644442
  C           21.338702       30.947403       23.615518
  O           21.174520       30.099490       24.470146
  O           22.443884       31.718696       23.466260
  C           23.465544       31.460548       24.429780
  H           19.688135       29.496778       20.841565
  H           18.389988       28.760691       21.821561
  H           20.089401       28.623644       22.313714
  H           18.464757       31.221252       22.182323
  H           18.869234       30.381484       23.678481
  H           23.101705       31.664997       25.448024
  H           24.303499       32.130337       24.224076
  H           23.819450       30.430810       24.347377
  C           30.615158       15.413148       22.280752
  C           30.393958       14.579545       21.039795
  O           29.425583       15.193416       20.186324
  C           28.130876       14.884351       20.463470
  O           27.738171       14.147570       21.346214
  O           27.347679       15.542968       19.573848
  C           25.950034       15.306436       19.745435
  H           30.908872       16.437660       22.010553
  H           31.403817       14.975642       22.907733
  H           29.705752       15.489845       22.873541
  H           31.332804       14.515222       20.463746
  H           30.116480       13.546318       21.293856
  H           25.715400       14.240090       19.608130
  H           25.413062       15.876547       18.984032
  H           25.620625       15.649207       20.728490
  C           15.120254       18.245923       24.969046
  C           13.979112       17.621837       25.738533
  O           14.232706       17.671117       27.144329
  C           14.958346       16.632906       27.638458
  O           15.392723       15.690783       27.005985
  O           15.110784       16.830626       28.971226
  C           15.857041       15.805562       29.627842
  H           15.298279       19.275979       25.309916
  H           14.899302       18.265374       23.893266
  H           16.047450       17.696839       25.121079
  H           13.053684       18.195603       25.560277
  H           13.777066       16.596466       25.396640
  H           15.350895       14.833070       29.532579
  H           15.919202       16.057347       30.688899
  H           16.871195       15.752214       29.226536
  C           12.337879       29.628784       35.092546
  C           11.643990       28.331082       34.748616
  O           12.569704       27.242331       34.774585
  C           13.248889       27.032123       33.615654
  O           13.135439       27.669250       32.587307
  O           14.078508       25.976740       33.806704
  C           14.858628       25.637442       32.659931
  H           12.840741       29.551372       36.067245
  H           11.616750       30.456268       35.134288
  H           13.103496       29.874848       34.359345
  H           10.871133       28.111744       35.504912
  H           11.121067       28.398375       33.783669
  H           14.210202       25.350954       31.818226
  H           15.485537       24.780692       32.916964
  H           15.509157       26.468213       32.378805
  C           16.628527       22.614490       25.109124
  C           16.571540       23.514696       26.321635
  O           15.393719       23.253672       27.088188
  C           14.284533       23.934845       26.695364
  O           14.212361       24.728045       25.777800
  O           13.265480       23.575770       27.514629
  C           12.027618       24.222738       27.218099
  H           16.569524       21.558341       25.409071
  H           17.562891       22.769814       24.552943
  H           15.792346       22.800768       24.438005
  H           17.433221       23.307112       26.978761
  H           16.647267       24.574686       26.039169
  H           12.121491       25.313547       27.329106
  H           11.279867       23.868537       27.931199
  H           11.692010       23.966122       26.211165
  C           16.351923       21.355806       29.182588
  C           15.541622       22.481092       29.783375
  O           15.869680       22.657367       31.163340
  C           15.174169       21.872397       32.028608
  O           14.318063       21.060769       31.737674
  O           15.602077       22.157824       33.283210
  C           14.948978       21.403104       34.304317
  H           17.427434       21.537982       29.320386
  H           16.147007       21.259748       28.107747
  H           16.127094       20.405604       29.663074
  H           15.786421       23.428203       29.273028
  H           14.463352       22.322041       29.637988
  H           13.867979       21.609030       34.310209
  H           15.361473       21.708188       35.268616
  H           15.136377       20.335529       34.171784
  C           18.666651        7.350160       13.666412
  C           19.373294        8.678541       13.525484
  O           20.570035        8.698142       14.306782
  C           20.408536        9.072298       15.603904
  O           19.364288        9.387666       16.139057
  O           21.625634        9.036337       16.200544
  C           21.607601        9.412907       17.577740
  H           19.338986        6.524133       13.393380
  H           17.780514        7.310326       13.018588
  H           18.351472        7.176303       14.693415
  H           19.674882        8.828813       12.474836
  H           18.707845        9.516604       13.778324
  H           21.255541       10.449026       17.693976
  H           22.629180        9.352935       17.959680
  H           20.983348        8.727603       18.154860
  C           35.950025       39.226621       16.076126
  C           36.558847       38.455546       14.927832
  O           36.082909       38.955788       13.676337
  C           34.912428       38.415499       13.244294
  O           34.257804       37.564038       13.812433
  O           34.601992       38.993307       12.057548
  C           33.387320       38.514378       11.479622
  H           36.152327       40.302081       15.969539
  H           36.361818       38.885328       17.035525
  H           34.868536       39.108503       16.103161
  H           37.654028       38.589613       14.930092
  H           36.380052       37.375355       15.029421
  H           33.453486       37.435864       11.271224
  H           33.231905       39.037591       10.533474
  H           32.540199       38.728233       12.134643
  C           29.266730       30.622553       21.387438
  C           29.132300       29.711943       20.188890
  O           27.866654       29.900613       19.552067
  C           26.846121       29.160753       20.061695
  O           26.917246       28.371307       20.982573
  O           25.726897       29.455900       19.355420
  C           24.566434       28.742241       19.782992
  H           29.116171       31.671524       21.094364
  H           30.262296       30.524173       21.840946
  H           28.518684       30.394176       22.144122
  H           29.905937       29.963130       19.443377
  H           29.297818       28.659957       20.462804
  H           24.709840       27.657703       19.663776
  H           23.728107       29.048587       19.153343
  H           24.325859       28.986683       20.819704
  C           38.539722        3.533677       15.212827
  C           37.495705        2.964069       14.280425
  O           36.638176        3.998085       13.792106
  C           35.575498        4.292659       14.587430
  O           35.297430        3.763320       15.645154
  O           34.871612        5.284821       13.988467
  C           33.714927        5.696652       14.717354
  H           39.111957        4.328239       14.712709
  H           39.237645        2.751084       15.539863
  H           38.082660        3.978882       16.094409
  H           37.988607        2.515583       13.401045
  H           36.926181        2.155343       14.760743
  H           33.006636        4.861827       14.828670
  H           33.222462        6.491203       14.152318
  H           33.998169        6.093555       15.694412
  C           35.599283       36.198919       19.854332
  C           34.519065       36.991365       19.155077
  O           34.225231       38.189258       19.877375
  C           33.302329       38.056959       20.866995
  O           32.718630       37.037542       21.177453
  O           33.141771       39.270906       21.449365
  C           32.189653       39.282171       22.513388
  H           36.499335       36.814317       19.996080
  H           35.870400       35.310036       19.268770
  H           35.276912       35.876198       20.842375
  H           34.872225       37.298891       18.156025
  H           33.617699       36.383569       18.990081
  H           31.191434       38.999735       22.146252
  H           32.134543       40.298760       22.909128
  H           32.506012       38.615822       23.318556
  C            8.224331       16.696062        5.815503
  C            7.972403       17.430957        4.519254
  O            8.634070       16.778495        3.433210
  C            9.927643       17.148399        3.237146
  O           10.549913       17.966923        3.884524
  O           10.405486       16.442779        2.182458
  C           11.764860       16.734853        1.857505
  H            7.915408       15.644356        5.729588
  H            7.666284       17.159630        6.640238
  H            9.282036       16.696016        6.071550
  H            6.893259       17.419164        4.289668
  H            8.260181       18.489524        4.594884
  H           11.880101       17.792885        1.577705
  H           12.048686       16.120500        1.000117
  H           12.421580       16.484333        2.693184
  C           38.281338       10.565839       20.336112
  C           38.045207        9.102724       20.040585
  O           36.721685        8.719111       20.420228
  C           36.577933        8.343228       21.718938
  O           37.454647        8.301590       22.559140
  O           35.276645        8.016055       21.914408
  C           34.978374        7.594760       23.245702
  H           37.523683       11.187682       19.837945
  H           39.275436       10.877456       19.988024
  H           38.208990       10.771137       21.402376
  H           38.130643        8.924914       18.955004
  H           38.806029        8.468378       20.517928
  H           35.549353        6.690639       23.505603
  H           33.914036        7.354326       23.295463
  H           35.183842        8.397151       23.957286
  C           10.373428       36.721343        4.971568
  C            9.392995       35.770609        5.618604
  O           10.001380       34.497524        5.846900
  C            9.944705       33.632598        4.799383
  O            9.430915       33.841554        3.718339
  O           10.562292       32.485357        5.174915
  C           10.574965       31.476239        4.164806
  H           11.282633       36.813725        5.582887
  H            9.927709       37.718157        4.852420
  H           10.684767       36.363187        3.992235
  H            9.091906       36.162591        6.605060
  H            8.470167       35.681067        5.027443
  H            9.549524       31.181534        3.895327
  H           11.089262       30.600214        4.566278
  H           11.119848       31.821842        3.283863
  C           34.621071        8.705651       10.577182
  C           34.679752        8.708587       12.087264
  O           35.525832        9.760629       12.556685
  C           36.846619        9.448489       12.638476
  O           37.354020        8.380264       12.359657
  O           37.504247       10.543714       13.093018
  C           38.913001       10.357604       13.232930
  H           34.291435        9.685009       10.201553
  H           33.922884        7.938199       10.216555
  H           35.600242        8.512737       10.143238
  H           33.673560        8.900413       12.497362
  H           34.991199        7.729601       12.479295
  H           39.130658        9.562450       13.961872
  H           39.343639       11.290307       13.604031
  H           39.367699       10.128688       12.266883
  C           24.222290       19.614206        1.882959
  C           25.016922       18.796861        2.875081
  O           26.144375       19.536563        3.349097
  C           27.261876       19.444753        2.580096
  O           27.382197       18.801565        1.556313
  O           28.228079       20.198204        3.160925
  C           29.470133       20.191851        2.456608
  H           23.916793       20.571928        2.328315
  H           23.321665       19.071760        1.564953
  H           24.813415       19.849262        0.999998
  H           24.390780       18.569724        3.754715
  H           25.315018       17.827559        2.450002
  H           29.884347       19.173585        2.405986
  H           30.174508       20.821774        3.004470
  H           29.345013       20.606397        1.454163
  C           25.144030       12.035974        5.754343
  C           25.938117       12.214986        4.481087
  O           27.119892       12.980268        4.727563
  C           26.960716       14.328896        4.660743
  O           25.930151       14.922152        4.411179
  O           28.162373       14.901639        4.918781
  C           28.145107       16.328825        4.878233
  H           25.765696       11.575781        6.535786
  H           24.268523       11.395983        5.579990
  H           24.800464       12.992042        6.144466
  H           26.266995       11.230337        4.107316
  H           25.324454       12.658426        3.683666
  H           27.859398       16.686940        3.877672
  H           29.153841       16.687033        5.095587
  H           27.467606       16.726154        5.636865
  C           17.253662       36.001381       38.340698
  C           17.981940       35.655627       39.618925
  O           19.386330       35.535037       39.381971
  C           19.800675       34.307247       38.970329
  O           19.099760       33.330053       38.796802
  O           21.143437       34.361671       38.789698
  C           21.720687       33.129445       38.357031
  H           17.666971       36.918362       37.896603
  H           16.183213       36.155811       38.532510
  H           17.361033       35.213098       37.598148
  H           17.850184       36.468990       40.352738
  H           17.568069       34.749700       40.084872
  H           21.558152       32.338923       39.105134
  H           22.796801       33.279377       38.244789
  H           21.311450       32.832892       37.389053
  C           26.359518        8.263326       10.801285
  C           25.974024        7.136232        9.871309
  O           24.629242        7.297320        9.414569
  C           23.674573        6.774187       10.229148
  O           23.861952        6.193208       11.279697
  O           22.467410        7.011420        9.658993
  C           21.362336        6.508845       10.410678
  H           26.215380        9.236163       10.309643
  H           27.411773        8.175337       11.103803
  H           25.741887        8.266192       11.697289
  H           26.619934        7.155671        8.976981
  H           26.129428        6.155106       10.342841
  H           21.426712        5.415200       10.514578
  H           20.445258        6.748374        9.867820
  H           21.316573        6.986311       11.391663
  C            7.465553        5.584023       10.759034
  C            8.715761        5.975660       11.512294
  O            8.613333        7.316709       11.996128
  C            9.000527        8.280058       11.118268
  O            9.419371        8.103076        9.991526
  O            8.840958        9.482249       11.724794
  C            9.215951       10.595507       10.913106
  H            6.576026        5.716734       11.391512
  H            7.516282        4.534074       10.440389
  H            7.323387        6.205815        9.877295
  H            8.835866        5.325391       12.395540
  H            9.616589        5.831666       10.898391
  H           10.282252       10.541858       10.646415
  H            9.052507       11.507735       11.491228
  H            8.596717       10.641421       10.014862
  C           30.945535       26.291053       25.126136
  C           30.798711       27.792278       25.033594
  O           32.068233       28.410015       24.810622
  C           32.784649       28.682597       25.933585
  O           32.445184       28.457241       27.078259
  O           33.951423       29.258237       25.551645
  C           34.810135       29.604664       26.638568
  H           31.433152       25.894320       24.224064
  H           29.963977       25.810213       25.234931
  H           31.565652       26.005332       25.973555
  H           30.161586       28.050324       24.170528
  H           30.296308       28.202481       25.921527
  H           34.325049       30.338196       27.300099
  H           35.713500       30.059536       26.226110
  H           35.098577       28.713005       27.199055
  C           34.324934       13.423443       33.396715
  C           33.978499       12.197250       34.209262
  O           32.574782       11.934196       34.151111
  C           31.823487       12.593855       35.072526
  O           32.232434       13.361913       35.920553
  O           30.528516       12.239712       34.882175
  C           29.618253       12.859772       35.790881
  H           33.979581       13.309459       32.359103
  H           35.410456       13.591020       33.389015
  H           33.841248       14.312749       33.796069
  H           34.487005       11.314888       33.784693
  H           34.333319       12.288659       35.246010
  H           29.849438       12.575930       36.828661
  H           28.611142       12.508465       35.555487
  H           29.640167       13.945369       35.675126
  C           22.315050       19.524726       26.087925
  C           21.167763       19.320550       25.125717
  O           19.917102       19.562146       25.774161
  C           19.386656       18.493061       26.425533
  O           19.868630       17.380001       26.496929
  O           18.214708       18.886503       26.982615
  C           17.539325       17.854433       27.701983
  H           22.277035       20.532450       26.526043
  H           23.278875       19.400639       25.575927
  H           22.269567       18.817811       26.914063
  H           21.244112       20.046024       24.297914
  H           21.201990       18.322522       24.665426
  H           17.279672       17.019400       27.033926
  H           16.613868       18.271357       28.105471
  H           18.151400       17.503978       28.535617
  C            6.681483       27.172684       13.171492
  C            7.265378       26.313335       14.268937
  O            7.660254       27.117599       15.382594
  C            8.914000       27.637935       15.305317
  O            9.706880       27.477783       14.398679
  O            9.129450       28.369081       16.426748
  C           10.420163       28.977066       16.483452
  H            5.841550       27.770076       13.554291
  H            6.320376       26.550908       12.341132
  H            7.417979       27.873394       12.783060
  H            6.498670       25.610826       14.637773
  H            8.096022       25.696146       13.897173
  H           11.211777       28.212674       16.476254
  H           10.491565       29.535925       17.419229
  H           10.552253       29.675311       15.654352
  C           11.363249       14.272272       28.042373
  C           12.213066       15.479019       27.717764
  O           11.805460       16.606516       28.495972
  C           10.793313       17.341927       27.963685
  O           10.225464       17.131634       26.910298
  O           10.528223       18.361643       28.817210
  C            9.479138       19.225936       28.379923
  H           11.399831       14.052433       29.119049
  H           11.714930       13.389371       27.491640
  H           10.318878       14.443704       27.788994
  H           13.265013       15.273341       27.979496
  H           12.200857       15.701295       26.640943
  H            9.741488       19.705029       27.424600
  H            9.347980       20.007965       29.131140
  H            8.540779       18.674940       28.288899
  C           12.552942       32.014551       18.855203
  C           11.061316       31.916878       19.077268
  O           10.617622       32.936678       19.975123
  C           10.700610       32.621969       21.295226
  O           11.103242       31.575557       21.763425
  O           10.248348       33.685534       22.004372
  C           10.274858       33.492845       23.418928
  H           12.824637       33.016230       18.492270
  H           12.885864       31.271699       18.117753
  H           13.102465       31.852628       19.780463
  H           10.532586       32.079262       18.122556
  H           10.771354       30.914447       19.423899
  H            9.628325       32.651214       23.709879
  H            9.891522       34.399438       23.892471
  H           11.297619       33.329614       23.764926
  C            8.662436        4.339874       20.668956
  C            8.122170        2.930478       20.594688
  O            7.357532        2.746103       19.401233
  C            6.048234        3.101247       19.491860
  O            5.487322        3.544324       20.474388
  O            5.471216        2.869255       18.286941
  C            4.082191        3.196186       18.236687
  H            9.253529        4.574698       19.772092
  H            9.301565        4.465327       21.553420
  H            7.857382        5.070447       20.718456
  H            8.959904        2.213717       20.551611
  H            7.542814        2.674238       21.493458
  H            3.512393        2.588302       18.955581
  H            3.716554        2.971795       17.232168
  H            3.931251        4.260550       18.428377
  C           11.764123       17.385561       17.276962
  C           13.037764       17.695698       18.028929
  O           13.325143       19.094916       17.977908
  C           14.027060       19.502379       16.887089
  O           14.424286       18.797832       15.980378
  O           14.212177       20.841719       16.989553
  C           14.944942       21.410491       15.904032
  H           10.928531       17.982520       17.669806
  H           11.508287       16.321213       17.367574
  H           11.858723       17.629065       16.220526
  H           12.913449       17.433435       19.093430
  H           13.879818       17.093031       17.659012
  H           15.955756       20.979132       15.847602
  H           15.039614       22.483769       16.083506
  H           14.411398       21.264476       14.962538
  C           22.766773       10.480300       25.858690
  C           22.293568        9.443524       24.866232
  O           22.635461        8.128425       25.309655
  C           23.878561        7.704027       24.958674
  O           24.698354        8.327407       24.313976
  O           24.044538        6.452454       25.453263
  C           25.315830        5.874930       25.154795
  H           22.357459       10.273527       26.857994
  H           22.450460       11.486167       25.550991
  H           23.850968       10.472998       25.952321
  H           21.193505        9.478903       24.788722
  H           22.680632        9.646816       23.857295
  H           25.455409        5.780422       24.067327
  H           25.345716        4.874665       25.592605
  H           26.119796        6.467992       25.595606
  C           31.186027       18.876334       25.878900
  C           31.246895       18.527301       24.409795
  O           32.051326       17.364419       24.200994
  C           33.383576       17.598968       24.064262
  O           33.932498       18.682408       24.098062
  O           33.997968       16.404669       23.877786
  C           35.413210       16.499992       23.714063
  H           30.817234       18.021614       26.464003
  H           30.518257       19.731883       26.048077
  H           32.171400       19.125411       26.267873
  H           30.234528       18.285747       24.043510
  H           31.597523       19.378619       23.808615
  H           35.663358       17.099301       22.825663
  H           35.807105       15.491509       23.569465
  H           35.875123       16.925350       24.607431
  C           25.014277        6.210455       37.856409
  C           25.210780        7.681387       37.570845
  O           26.485304        7.911498       36.966167
  C           27.517000        8.078542       37.835822
  O           27.449087        8.054956       39.048724
  O           28.643396        8.282000       37.108885
  C           29.816123        8.478278       37.899447
  H           25.136410        5.618951       36.937656
  H           24.011243        6.023843       38.263349
  H           25.749843        5.843859       38.569746
  H           24.448576        8.024657       36.850698
  H           25.074300        8.288550       38.477391
  H           29.713033        9.370841       38.534825
  H           30.659512        8.634323       37.223101
  H           30.021258        7.594874       38.507653
  C           18.453453       17.445307       32.695579
  C           17.689202       18.211487       31.640739
  O           18.446024       19.335990       31.187181
  C           18.299841       20.468144       31.925733
  O           17.596621       20.603330       32.907317
  O           19.078014       21.429372       31.369777
  C           19.019895       22.685535       32.046148
  H           19.438212       17.139909       32.313632
  H           17.900810       16.546256       33.000198
  H           18.631266       18.056699       33.578123
  H           17.519392       17.565232       30.762719
  H           16.694137       18.508958       32.001927
  H           17.996987       23.090921       32.028286
  H           19.675010       23.384496       31.521384
  H           19.375852       22.585045       33.073570
  C           11.875246       17.591288       23.196063
  C           10.682741       18.101655       23.971472
  O            9.558691       17.236719       23.794275
  C            8.792862       17.499047       22.701897
  O            8.974156       18.384167       21.889496
  O            7.780880       16.596858       22.678495
  C            6.886870       16.756809       21.576696
  H           12.112512       16.558195       23.488165
  H           12.757077       18.219631       23.380614
  H           11.676799       17.580717       22.126107
  H           10.915719       18.106302       25.049943
  H           10.443577       19.140808       23.703027
  H            6.398952       17.742603       21.610533
  H            6.113870       15.988782       21.652230
  H            7.415455       16.621601       20.630801
  C           32.498283       28.354737       38.773866
  C           31.106139       27.889810       39.133834
  O           30.408517       27.439761       37.970313
  C           29.760303       28.410033       37.272465
  O           29.720067       29.592591       37.548576
  O           29.157972       27.823611       36.208553
  C           28.430056       28.731600       35.381212
  H           33.050513       27.556618       38.257197
  H           33.057412       28.642168       39.674565
  H           32.468678       29.207999       38.099056
  H           31.168522       27.029569       39.821943
  H           30.546660       28.671732       39.667388
  H           27.618468       29.211238       35.948903
  H           27.985511       28.162586       34.561637
  H           29.098252       29.483288       34.955913
  C           33.049026        2.789062       38.728035
  C           34.170298        2.864386       37.717652
  O           33.665211        3.225798       36.430302
  C           33.226749        2.188598       35.668353
  O           33.232427        1.013541       35.977401
  O           32.782364        2.696691       34.492359
  C           32.291279        1.710979       33.583509
  H           32.497492        3.739524       38.764530
  H           33.442608        2.572843       39.730453
  H           32.330398        2.015279       38.465104
  H           34.884233        3.651853       38.013609
  H           34.742927        1.926341       37.682038
  H           33.086231        0.999766       33.312905
  H           31.962954        2.220396       32.674775
  H           31.435255        1.185992       34.012475
  C           17.793614       15.367029       24.529728
  C           16.588520       15.196831       23.633859
  O           16.549200       13.876651       23.087435
  C           17.259713       13.703070       21.941294
  O           17.902579       14.551571       21.355573
  O           17.121811       12.409233       21.559757
  C           17.818571       12.081948       20.357172
  H           17.797466       14.603740       25.321103
  H           17.791866       16.359870       24.999582
  H           18.720996       15.250621       23.972312
  H           15.665686       15.325924       24.224717
  H           16.560997       15.964466       22.847044
  H           17.440002       12.677645       19.512878
  H           17.641788       11.026428       20.138710
  H           18.892789       12.232419       20.482922
  C           25.901324       20.057974       16.053394
  C           25.912640       21.352860       16.832460
  O           24.583111       21.847851       17.006628
  C           24.114376       22.618542       15.989316
  O           24.714081       22.918364       14.976024
  O           22.852755       23.001253       16.306247
  C           22.232216       23.826592       15.320069
  H           25.257154       19.315996       16.546763
  H           26.915465       19.643897       15.972408
  H           25.506645       20.203181       15.049680
  H           26.322451       21.175345       17.841392
  H           26.567072       22.100040       16.360717
  H           22.795871       24.761847       15.183718
  H           21.228942       24.078827       15.670665
  H           22.141494       23.290694       14.372977
  C           21.830124       18.414966       32.011126
  C           22.046349       17.662632       33.303813
  O           21.771449       18.502103       34.427521
  C           22.815531       19.263302       34.850686
  O           23.932131       19.286251       34.372170
  O           22.392346       19.995236       35.910774
  C           23.395754       20.846408       36.465280
  H           20.810344       18.823737       31.968064
  H           21.980242       17.754116       31.146695
  H           22.513444       19.257479       31.924253
  H           21.344908       16.812819       33.360382
  H           23.057000       17.232349       33.354216
  H           24.245531       20.255286       36.838717
  H           22.956393       21.385393       37.307632
  H           23.730769       21.576906       35.725999
  C           23.384447       35.445018        4.680773
  C           23.755857       36.265576        3.467291
  O           24.992456       35.812523        2.911805
  C           26.109009       36.361586        3.459928
  O           26.144241       37.185114        4.352597
  O           27.185155       35.829579        2.829468
  C           28.438002       36.322863        3.304701
  H           23.343674       34.376101        4.426503
  H           22.404507       35.750495        5.071799
  H           24.121809       35.554509        5.473622
  H           22.988411       36.139072        2.684716
  H           23.783568       37.339583        3.701475
  H           28.514339       37.409279        3.146990
  H           29.232792       35.836853        2.734436
  H           28.571764       36.077154        4.360227
  C           32.916523       19.532707       12.411435
  C           32.813248       18.639791       11.196595
  O           34.096714       18.119549       10.842954
  C           34.840192       18.916010       10.029633
  O           34.513851       19.999051        9.585985
  O           36.016975       18.284923        9.794027
  C           36.904260       19.011293        8.943197
  H           33.376429       18.991380       13.250692
  H           31.922992       19.883278       12.722073
  H           33.542265       20.400647       12.212874
  H           32.169407       17.773701       11.426286
  H           32.338724       19.161904       10.353195
  H           36.452854       19.167782        7.951863
  H           37.813644       18.419646        8.816411
  H           37.175408       19.966571        9.397426
  C           34.190032       27.214801        8.699362
  C           33.074129       26.570642        9.489057
  O           33.603668       25.704840       10.495523
  C           33.867826       24.435336       10.086647
  O           33.692133       23.985255        8.971811
  O           34.361366       23.751804       11.148627
  C           34.682527       22.390109       10.863247
  H           34.878141       27.750173        9.369275
  H           33.787167       27.927695        7.967254
  H           34.779808       26.470500        8.167872
  H           32.491651       27.348928       10.010968
  H           32.367040       26.045551        8.830721
  H           33.785241       21.835387       10.549942
  H           35.066482       21.932806       11.777879
  H           35.458168       22.331220       10.096883
  C           17.953395        8.599844       30.573101
  C           17.758141       10.097767       30.616721
  O           18.967218       10.752434       31.007290
  C           19.153924       10.871290       32.348787
  O           18.399620       10.484322       33.219178
  O           20.335584       11.505644       32.548474
  C           20.661938       11.703990       33.924320
  H           18.786520        8.338224       29.905001
  H           17.044276        8.099412       30.213143
  H           18.199065        8.203743       31.556488
  H           17.505010       10.468507       29.608814
  H           16.916290       10.374570       31.267695
  H           19.905519       12.332852       34.417637
  H           21.623024       12.220620       33.974380
  H           20.759165       10.745187       34.437782
  C            9.927173       21.983983       38.841395
  C           11.052083       21.132798       39.383485
  O           12.229962       21.918725       39.578217
  C           13.029363       22.044269       38.485607
  O           12.836222       21.554871       37.390397
  O           14.090476       22.813112       38.834203
  C           15.023910       23.027575       37.775191
  H            9.735163       22.838942       39.505532
  H            9.003837       21.396103       38.750035
  H           10.175005       22.391599       37.863270
  H           10.769752       20.729764       40.371034
  H           11.244554       20.263027       38.738852
  H           15.453544       22.073265       37.435035
  H           15.834570       23.651521       38.158104
  H           14.547925       23.552820       36.944554
  C           24.567051        1.679558       14.320377
  C           25.434046        2.869951       13.981139
  O           26.760778        2.450350       13.654463
  C           27.600658        2.308757       14.714253
  O           27.328980        2.507990       15.881642
  O           28.805196        1.907507       14.238138
  C           29.795562        1.720932       15.249655
  H           24.567593        0.953516       13.494687
  H           23.531952        1.993918       14.510763
  H           24.937031        1.158412       15.201184
  H           25.031433        3.380203       13.089542
  H           25.429743        3.614048       14.790708
  H           29.991116        2.663789       15.782364
  H           30.721011        1.402898       14.764373
  H           29.487676        0.940829       15.948973
  C           21.086225       25.944729        4.281897
  C           19.726136       25.360799        4.586829
  O           19.827441       23.960443        4.854672
  C           19.779848       23.156548        3.759187
  O           19.656637       23.516337        2.605207
  O           19.890299       21.872836        4.181660
  C           19.851575       20.910224        3.127773
  H           21.786849       25.742104        5.104678
  H           21.019390       27.031526        4.137313
  H           21.514691       25.502857        3.384419
  H           19.315691       25.831436        5.496464
  H           19.008689       25.570542        3.780369
  H           18.892816       20.959495        2.589858
  H           19.945079       19.916602        3.571702
  H           20.686484       21.060188        2.440140
  C            6.083671       19.149051       30.894682
  C            5.527396       20.209062       29.972329
  O            6.423600       20.452405       28.885773
  C            7.398133       21.367703       29.132987
  O            7.564281       21.982962       30.167468
  O            8.156103       21.478940       28.014190
  C            9.225915       22.417550       28.129576
  H            6.299695       18.226462       30.336953
  H            5.368725       18.916017       31.695337
  H            7.018440       19.470894       31.349571
  H            4.578978       19.857111       29.531835
  H            5.289527       21.132971       30.519054
  H            8.837856       23.429256       28.321570
  H            9.768400       22.432489       27.181638
  H            9.918361       22.115237       28.917945
  C           13.542769       37.725949       25.790239
  C           12.482545       37.247525       26.755037
  O           13.077979       36.784494       27.969146
  C           13.470115       35.482658       27.961913
  O           13.355959       34.699999       27.039571
  O           14.011215       35.205755       29.173992
  C           14.467117       33.859641       29.311581
  H           14.165427       38.503775       26.255194
  H           13.084006       38.139803       24.882076
  H           14.209953       36.916103       25.501593
  H           11.819479       38.087371       27.024112
  H           11.839825       36.481123       26.298265
  H           13.632698       33.151669       29.195305
  H           14.879503       33.741689       30.316133
  H           15.256470       33.645918       28.587948
  C           31.000407       19.747934        8.184518
  C           30.909067       21.219820        8.514685
  O           29.545221       21.617060        8.673192
  C           28.908155       21.970950        7.525364
  O           29.387150       21.983181        6.408801
  O           27.636332       22.314841        7.846000
  C           26.844631       22.715951        6.727466
  H           30.493178       19.147441        8.953301
  H           32.049214       19.427259        8.123931
  H           30.515705       19.524015        7.236244
  H           31.413165       21.416413        9.476265
  H           31.427437       21.833150        7.763540
  H           27.275162       23.606001        6.244295
  H           25.847224       22.972114        7.091691
  H           26.749937       21.897342        6.011007
  C           19.812462       25.326767       14.058536
  C           18.686022       25.854756       13.200539
  O           17.467354       25.165754       13.488850
  C           17.276793       24.011730       12.795658
  O           18.030052       23.532503       11.971496
  O           16.088528       23.486267       13.183621
  C           15.753908       22.262730       12.528041
  H           19.552291       25.398272       15.124415
  H           20.734912       25.896753       13.883317
  H           20.010459       24.277165       13.850131
  H           18.512939       26.920079       13.429732
  H           18.938411       25.806248       12.131405
  H           15.665884       22.414018       11.441595
  H           14.785804       21.927930       12.907227
  H           16.495775       21.492891       12.750261
  C           14.537584       12.210177       32.457628
  C           15.628855       11.777688       33.409406
  O           15.160287       11.805492       34.759469
  C           15.272640       13.006576       35.386663
  O           15.729332       14.027921       34.912755
  O           14.786617       12.864684       36.644537
  C           14.845811       14.057602       37.426996
  H           13.642756       11.584299       32.585929
  H           14.875817       12.129745       31.415693
  H           14.234560       13.238697       32.643706
  H           15.918464       10.735265       33.192886
  H           16.537553       12.383378       33.280928
  H           15.887206       14.390647       37.551809
  H           14.435714       13.836504       38.414942
  H           14.242018       14.845455       36.971889
  C            8.548123       16.714016       10.690972
  C            9.899681       17.375625       10.830127
  O           10.612087       17.331894        9.591755
  C           11.335774       16.200542        9.379811
  O           11.430261       15.252738       10.134158
  O           11.942236       16.316205        8.172572
  C           12.746607       15.191128        7.817622
  H            7.971884       17.179791        9.878628
  H            7.974291       16.801691       11.623459
  H            8.647350       15.658644       10.444716
  H            9.766902       18.440862       11.085158
  H           10.481688       16.932114       11.650898
  H           13.562659       15.051146        8.542511
  H           13.188032       15.384871        6.837465
  H           12.135284       14.289014        7.747805
  C           29.262523       10.301078       32.887953
  C           29.008117        9.086593       33.750568
  O           27.663593        9.085646       34.235598
  C           27.462949        9.780613       35.386843
  O           28.306051       10.380863       36.023379
  O           26.148790        9.683267       35.706388
  C           25.791610       10.369089       36.906751
  H           28.537154       10.347692       32.062989
  H           30.275266       10.271594       32.463709
  H           29.153867       11.221581       33.458189
  H           29.131141        8.170791       33.147600
  H           29.737187        9.016254       34.570695
  H           26.333800        9.953248       37.769367
  H           24.721483       10.227173       37.073451
  H           25.986133       11.439207       36.809755
  C           13.381212        5.289962       33.864185
  C           14.007969        4.667680       35.090456
  O           13.184426        4.878625       36.239491
  C           13.391712        6.052945       36.892641
  O           14.198070        6.911584       36.594603
  O           12.538471        6.098148       37.945511
  C           12.648999        7.285526       38.730825
  H           12.365595        4.898517       33.708637
  H           13.981028        5.075376       32.969381
  H           13.292364        6.369467       33.969416
  H           14.090015        3.576132       34.951927
  H           15.031640        5.036276       35.249619
  H           13.655793        7.372421       39.166502
  H           11.926349        7.221208       39.547367
  H           12.412543        8.166294       38.130212
  C           29.428259       32.795171       12.122625
  C           28.746053       33.976103       11.471629
  O           29.124950       34.082423       10.097535
  C           30.266692       34.782886        9.864346
  O           30.969566       35.315649       10.700069
  O           30.484404       34.787513        8.525996
  C           31.659023       35.497376        8.132088
  H           29.207546       31.869654       11.571622
  H           29.090541       32.674666       13.160857
  H           30.510045       32.913658       12.123122
  H           27.652564       33.830189       11.491399
  H           28.943008       34.907534       12.021850
  H           31.589231       36.557045        8.420584
  H           31.740105       35.442751        7.044181
  H           32.549030       35.038142        8.567281
  C           18.288930       34.790340       27.454255
  C           17.298798       33.964014       26.666457
  O           17.255150       32.623528       27.160614
  C           18.179754       31.780182       26.629130
  O           19.012802       32.059419       25.789870
  O           18.006750       30.562321       27.199641
  C           18.915790       29.567008       26.728687
  H           18.046929       34.764461       28.526480
  H           18.278435       35.835676       27.117116
  H           19.300580       34.403581       27.348037
  H           16.285441       34.383008       26.788736
  H           17.517225       33.994252       25.589203
  H           18.789609       29.404033       25.647707
  H           18.691899       28.630895       27.245083
  H           19.945672       29.848779       26.957486
  C           11.464184       16.696060       35.569655
  C           11.089866       17.999110       36.237297
  O           12.234055       18.845898       36.366832
  C           12.981786       18.641896       37.483919
  O           12.763624       17.828025       38.359316
  O           14.019334       19.514347       37.453551
  C           14.893826       19.414647       38.577883
  H           11.938412       16.883444       34.595542
  H           10.575384       16.070018       35.412790
  H           12.179766       16.135714       36.168199
  H           10.360478       18.540757       35.611189
  H           10.598027       17.827771       37.205718
  H           14.354630       19.634031       39.511766
  H           15.687291       20.155657       38.457812
  H           15.351363       18.424117       38.621581
  C           29.731969       19.357656       32.976497
  C           30.792851       18.868578       32.017783
  O           30.524252       19.328676       30.691448
  C           29.690567       18.539702       29.962689
  O           29.173338       17.503542       30.330312
  O           29.538621       19.112186       28.742945
  C           28.683288       18.382715       27.862559
  H           29.653214       20.453692       32.939054
  H           29.970009       19.057752       34.006009
  H           28.752098       18.960307       32.719076
  H           31.773841       19.282429       32.307241
  H           30.895989       17.774519       32.056477
  H           29.090534       17.379474       27.665945
  H           28.630696       18.923276       26.914862
  H           27.675095       18.314191       28.276385
  C            7.629775       25.315136       26.259434
  C            8.965446       26.021827       26.240164
  O            9.092763       26.889667       27.368722
  C            8.579907       28.137540       27.200224
  O            8.042685       28.567509       26.198816
  O            8.777421       28.826063       28.351538
  C            8.287261       30.166710       28.316749
  H            7.495367       24.768971       27.204176
  H            7.555248       24.601552       25.427723
  H            6.806388       26.022496       26.182128
  H            9.778868       25.279999       26.313909
  H            9.122459       26.558752       25.293508
  H            8.799839       30.749035       27.536261
  H            8.496567       30.630088       29.283481
  H            7.207108       30.176399       28.156822
  C           19.674245       25.394164       27.460413
  C           20.411265       24.494043       28.424978
  O           21.173737       25.267747       29.353967
  C           22.419291       25.614700       28.933468
  O           22.927174       25.326834       27.867875
  O           23.002830       26.339999       29.919381
  C           24.328901       26.772409       29.613835
  H           19.039962       26.107707       28.005794
  H           19.039112       24.804236       26.785809
  H           20.365932       25.980356       26.858543
  H           19.685361       23.909566       29.015613
  H           21.037067       23.762409       27.893768
  H           24.992978       25.909707       29.453376
  H           24.705684       27.341259       30.466797
  H           24.327644       27.424856       28.738214
  C           35.107789       32.780065       31.572070
  C           36.143702       31.826295       32.120711
  O           35.557195       30.554165       32.404778
  C           34.992268       30.439098       33.636126
  O           34.949373       31.299124       34.493340
  O           34.484653       29.186396       33.744129
  C           33.858432       28.920785       34.999557
  H           34.622347       32.353196       30.682672
  H           35.568889       33.737669       31.294794
  H           34.322350       32.973196       32.300140
  H           36.928084       31.654903       31.363896
  H           36.650982       32.246805       33.001017
  H           34.581616       29.015223       35.823624
  H           33.488544       27.893148       34.983958
  H           33.009580       29.590056       35.154242
  C            9.191286       27.049826       38.731767
  C            9.639473       25.842289       39.522200
  O           10.871170       26.109933       40.196209
  C           11.993545       25.881299       39.463678
  O           12.037838       25.475293       38.319345
  O           13.063826       26.183326       40.239485
  C           14.322062       25.985005       39.594263
  H            9.109377       27.930418       39.385027
  H            8.214350       26.867723       38.263864
  H            9.906790       27.299743       37.950809
  H            8.892813       25.610355       40.300728
  H            9.709229       24.948451       38.885579
  H           14.453666       24.929344       39.312730
  H           15.111611       26.252729       40.299979
  H           14.409966       26.630554       38.717941
  C           29.384256       20.344997       17.589676
  C           30.190669       19.846290       16.412905
  O           30.375928       20.887528       15.451395
  C           29.375445       21.018770       14.540127
  O           28.368483       20.342251       14.471937
  O           29.701017       22.041197       13.711124
  C           28.732892       22.292126       12.692022
  H           29.862032       21.227377       18.039157
  H           29.294021       19.565093       18.357861
  H           28.384035       20.646637       17.284926
  H           31.195412       19.543037       16.753390
  H           29.734619       18.952606       15.962963
  H           28.616197       21.413138       12.040283
  H           29.089229       23.125834       12.082880
  H           27.774662       22.573235       13.133808
  C           38.002442        5.759403       30.815285
  C           38.067307        6.413650       32.176003
  O           36.791846        6.366076       32.819382
  C           35.950940        7.389970       32.514225
  O           36.186386        8.318467       31.766724
  O           34.796052        7.195931       33.197732
  C           33.813020        8.207076       32.974046
  H           37.632849        4.727367       30.900152
  H           38.995188        5.739280       30.345659
  H           37.318477        6.287845       30.154042
  H           38.771401        5.860352       32.820605
  H           38.452198        7.441549       32.109813
  H           34.184063        9.190417       33.300186
  H           32.930057        7.959609       33.567539
  H           33.523759        8.234962       31.921454
  C           13.523893       16.762794       32.574916
  C           12.659715       15.803823       31.789187
  O           11.424737       15.566052       32.468373
  C           11.455520       14.570954       33.394350
  O           12.414518       13.882489       33.681818
  O           10.219066       14.476423       33.942845
  C           10.102631       13.459608       34.938500
  H           12.983474       17.700773       32.767380
  H           14.445933       16.995319       32.025121
  H           13.795066       16.348434       33.543973
  H           12.406532       16.248224       30.811533
  H           13.192994       14.866748       31.573309
  H           10.308358       12.467707       34.508607
  H            9.076039       13.465482       35.311562
  H           10.774277       13.662972       35.775122
  C            6.568937       19.703101       35.460533
  C            5.063717       19.727992       35.328270
  O            4.446580       19.833328       36.613200
  C            4.237827       18.652349       37.253756
  O            4.518199       17.546102       36.836733
  O            3.653735       18.925134       38.446662
  C            3.370649       17.766734       39.232010
  H            6.923477       20.589658       36.005710
  H            7.046069       19.685198       34.471329
  H            6.902865       18.831831       36.020606
  H            4.756480       20.617415       34.752134
  H            4.694876       18.855823       34.769364
  H            2.667532       17.102378       38.707360
  H            2.903299       18.093791       40.163524
  H            4.292187       17.234747       39.477278
  C           17.067490       27.868346       19.179717
  C           17.358705       26.581802       19.917144
  O           18.337974       25.810574       19.217688
  C           17.846539       24.989953       18.251421
  O           16.678671       24.856009       17.944103
  O           18.893983       24.338368       17.688484
  C           18.522314       23.431165       16.650387
  H           17.992759       28.440877       19.021644
  H           16.362136       28.490667       19.746896
  H           16.642986       27.673936       18.196711
  H           17.781661       26.810819       20.910149
  H           16.439856       26.005697       20.098583
  H           17.862373       22.641654       17.040453
  H           19.431300       22.960832       16.268771
  H           18.039695       23.964775       15.828963
  C           31.502667       21.097178       37.149605
  C           31.072366       20.329636       38.378230
  O           31.516673       18.973021       38.306222
  C           30.682904       18.124954       37.647275
  O           29.619987       18.412525       37.133650
  O           31.245863       16.891543       37.666604
  C           30.470278       15.889806       37.007975
  H           32.592712       21.037200       37.018819
  H           31.216557       22.154501       37.231506
  H           31.052020       20.686512       36.248177
  H           31.539560       20.771936       39.274612
  H           29.985635       20.394822       38.532721
  H           29.490875       15.771811       37.495670
  H           31.006890       14.941321       37.082288
  H           30.346575       16.133622       35.950785
  O           30.675514       38.636405       30.695143
  S           31.349251       37.389572       30.381959
  O           31.111157       36.890728       29.035346
  F           30.534483       36.353040       31.290504
  N           32.822613       37.294952       30.940844
  S           33.505287       35.877798       30.724671
  O           32.690681       34.694958       31.014513
  O           34.836252       35.811840       31.331533
  C           33.811669       35.896075       28.896777
  F           32.917384       35.161887       28.181849
  F           35.037493       35.363874       28.600941
  F           33.842148       37.156828       28.377863
  O           15.009597       13.503294       14.613894
  S           15.402515       14.543495       13.681051
  O           15.803476       14.062694       12.366912
  F           16.789440       15.030234       14.316051
  N           14.495676       15.834522       13.735737
  S           15.012532       17.025653       12.821863
  O           16.448398       17.315362       12.854381
  O           14.188531       18.227120       12.968834
  C           14.623127       16.380883       11.128335
  F           15.704586       15.892401       10.463706
  F           14.124082       17.374065       10.329621
  F           13.656339       15.419147       11.137588
  O           15.306490       25.475424       13.775511
  S           15.526806       26.558267       12.834495
  O           16.478171       26.258997       11.774192
  F           16.328382       27.606773       13.741032
  N           14.215565       27.340454       12.433332
  S           14.476796       28.613112       11.520534
  O           15.589002       29.488068       11.900204
  O           13.243355       29.352128       11.243804
  C           14.931886       27.818398        9.909099
  F           16.267674       27.819825        9.653035
  F           14.359793       28.482091        8.857614
  F           14.477495       26.536917        9.804051
  O           13.707073       10.783286       25.235254
  S           14.103235       10.056081       26.427239
  O           13.211557        8.967805       26.800691
  F           13.826959       11.144842       27.568279
  N           15.655810        9.791363       26.534644
  S           16.104060        9.126672       27.905176
  O           15.514961        9.668689       29.132319
  O           17.558061        8.977207       27.992584
  C           15.455659        7.402127       27.702886
  F           14.306090        7.162724       28.389237
  F           16.355854        6.483133       28.170325
  F           15.253334        7.062504       26.397734
  O            7.261479       27.495277       17.511659
  S            6.113201       26.890825       18.161809
  O            6.305751       26.578965       19.570556
  F            6.090424       25.442045       17.480472
  N            4.728356       27.520981       17.740848
  S            3.466660       26.765079       18.339043
  O            3.483513       25.300768       18.292047
  O            2.206728       27.333128       17.855316
  C            3.560413       27.255889       20.123900
  F            4.062531       26.286583       20.935209
  F            2.315993       27.536232       20.620115
  F            4.282060       28.395912       20.322072
  O           24.588904        2.172417       29.036273
  S           23.738718        2.171666       27.859929
  O           22.636875        1.221551       27.905991
  F           24.713742        1.527184       26.765548
  N           23.433330        3.609575       27.284381
  S           22.626495        3.599594       25.916896
  O           23.055344        2.638472       24.897567
  O           22.439745        4.949173       25.380368
  C           20.944124        3.074105       26.490386
  F           20.660791        1.767674       26.239665
  F           19.965151        3.786961       25.852541
  F           20.740370        3.308884       27.818190
  O           35.621074        5.992039       11.286064
  S           34.718896        4.855970       11.241079
  O           35.371938        3.566774       11.066691
  F           33.998861        5.079761        9.828575
  N           33.532212        4.933692       12.279269
  S           32.466652        3.766001       12.130329
  O           32.036280        3.426405       10.771597
  O           31.344200        3.926265       13.056890
  C           33.421719        2.316309       12.779666
  F           33.906509        1.497294       11.808021
  F           32.630559        1.520929       13.563781
  F           34.458299        2.683758       13.586006
  O           32.911978       10.374661       31.920692
  S           32.786746       11.043308       30.638574
  O           31.955757       10.346646       29.667482
  F           34.259836       10.856774       30.039484
  N           32.623518       12.610083       30.741888
  S           32.633532       13.354064       29.339214
  O           33.647146       12.932431       28.368898
  O           32.563412       14.808918       29.489485
  C           30.982982       12.862260       28.654222
  F           31.047446       11.879156       27.716538
  F           30.377365       13.919624       28.030836
  F           30.103044       12.474252       29.621103
  O            6.760658       37.857447       36.068939
  S            7.015934       37.420524       37.429281
  O            6.083057       36.423252       37.933353
  F            6.616563       38.728668       38.261725
  N            8.545163       37.218994       37.765352
  S            8.832196       36.883625       39.290553
  O            8.109949       37.671141       40.292989
  O           10.266245       36.787959       39.570646
  C            8.203668       35.143757       39.405495
  F            6.982643       35.037906       39.995236
  F            9.041124       34.370188       40.162897
  F            8.149315       34.519593       38.194229
  O            8.440989       11.843771       29.239857
  S            8.130962       13.088677       29.918600
  O            9.040720       13.434639       31.000982
  F            6.788417       12.697688       30.698600
  N            7.674725       14.252341       28.954322
  S            7.196781       15.565460       29.708237
  O            6.318814       15.385734       30.867363
  O            6.705782       16.584089       28.777960
  C            8.807710       16.229372       30.340322
  F            9.019343       15.992249       31.662776
  F            8.864182       17.589883       30.201683
  F            9.882782       15.760937       29.644270
  O           24.299852        6.338147       33.321295
  S           24.424191        7.771395       33.513491
  O           25.654857        8.193368       34.166406
  F           23.318759        8.036262       34.641128
  N           23.920060        8.632001       32.289845
  S           23.920254       10.197052       32.557647
  O           23.399001       10.651805       33.849232
  O           23.367764       10.946920       31.427801
  C           25.735818       10.569584       32.539033
  F           26.276809       10.731256       33.776406
  F           25.988138       11.740394       31.876509
  F           26.462760        9.626623       31.874142
  O           35.191981       33.697965        7.704609
  S           33.988633       33.006558        7.279745
  O           34.220416       31.848531        6.428775
  F           33.355555       34.069340        6.263179
  N           32.891206       32.871044        8.406417
  S           31.521515       32.246327        7.901661
  O           30.995112       32.738438        6.625955
  O           30.509110       32.217521        8.959160
  C           32.001064       30.474017        7.647991
  F           32.206327       30.140815        6.345400
  F           31.014682       29.632753        8.086996
  F           33.108243       30.118198        8.360204
  O            5.536998       14.732631       19.827099
  S            5.252610       13.374448       19.401585
  O            5.170931       12.402633       20.482235
  F            6.622648       12.977615       18.674111
  N            4.177437       13.271413       18.250288
  S            3.974765       11.801189       17.685961
  O            5.183313       11.012612       17.432467
  O            3.031633       11.768591       16.566345
  C            3.078659       10.991613       19.092012
  F            3.867032       10.191142       19.858573
  F            2.076706       10.180850       18.631410
  F            2.456362       11.888442       19.909413
  O           22.322161       36.277581       16.806098
  S           22.249149       36.764774       18.171349
  O           23.113825       37.899750       18.459560
  F           22.956310       35.571470       18.971130
  N           20.787630       36.796318       18.767227
  S           20.725522       37.189449       20.304331
  O           21.707844       36.562446       21.192368
  O           19.361345       37.124396       20.832433
  C           21.127351       38.997500       20.234431
  F           22.406597       39.290805       20.591366
  F           20.337497       39.707833       21.097540
  F           20.888784       39.545652       19.008742
  O           36.977082       32.425540       12.140302
  S           37.093902       33.611293       11.311482
  O           38.407286       33.810900       10.716436
  F           37.025180       34.773442       12.410750
  N           35.834841       33.887305       10.400064
  S           35.902049       35.259917        9.604752
  O           36.358921       36.437852       10.346667
  O           34.678916       35.511150        8.839946
  C           37.194616       34.880396        8.331711
  F           38.415646       35.409421        8.612996
  F           36.847091       35.396851        7.112736
  F           37.347500       33.542689        8.115222
  O           30.808908       16.555404       17.535625
  S           31.404028       15.762995       16.475191
  O           31.416992       14.328400       16.721506
  F           32.949414       16.158055       16.614511
  N           31.026945       16.246031       15.020343
  S           31.792506       15.472095       13.864471
  O           33.227288       15.243038       14.053236
  O           31.473828       16.009438       12.540157
  C           30.962158       13.816044       13.922950
  F           31.695275       12.854911       14.546377
  F           30.734915       13.337965       12.660729
  F           29.731014       13.861678       14.507675
  O           26.175505       15.412474        9.802271
  S           25.649455       15.601365        8.462796
  O           25.220081       14.378793        7.799580
  F           26.975109       15.993206        7.654834
  N           24.728786       16.874033        8.305356
  S           24.273819       17.160848        6.811421
  O           25.297354       17.044557        5.769523
  O           23.492654       18.394613        6.703229
  C           23.053137       15.794046        6.533598
  F           23.542010       14.761685        5.795267
  F           21.959953       16.246897        5.845648
  F           22.551116       15.288390        7.696348
  O           32.096451       10.605017        9.991797
  S           31.025454        9.839607        9.380475
  O           30.498630       10.407175        8.147908
  F           29.830872       10.082440       10.418600
  N           31.243711        8.276747        9.424439
  S           30.007440        7.436943        8.888283
  O           28.675222        7.856053        9.331276
  O           30.222803        5.995130        9.025732
  C           30.106366        7.765452        7.066829
  F           29.203836        8.681221        6.623312
  F           29.851450        6.627635        6.350038
  F           31.348765        8.160874        6.667096
  O           21.838128       15.492218       13.522046
  S           21.358772       16.090429       14.754507
  O           20.495692       15.231674       15.552337
  F           20.339939       17.192068       14.195872
  N           22.443510       16.942950       15.521742
  S           21.879679       17.714673       16.789669
  O           20.595348       18.402394       16.634002
  O           22.900218       18.555575       17.418545
  C           21.611046       16.317048       17.977053
  F           20.310672       15.935351       18.092102
  F           21.999806       16.667987       19.241611
  F           22.355217       15.215081       17.674432
  O            4.162440       36.657526       27.827410
  S            5.043299       36.550128       26.678866
  O            4.590032       37.266003       25.495240
  F            4.836504       35.017533       26.264028
  N            6.579096       36.634684       27.034220
  S            7.542722       36.371344       25.800049
  O            7.205193       35.250547       24.918808
  O            8.952951       36.377598       26.194149
  C            7.311675       37.926891       24.819084
  F            6.496495       37.780762       23.740183
  F            8.504977       38.369325       24.315415
  F            6.843128       38.962778       25.572145
  O           16.587513        9.071914       22.090927
  S           15.415622        9.271522       21.258205
  O           14.609999        8.078009       21.045130
  F           16.084248        9.505861       19.822334
  N           14.649879       10.623682       21.536412
  S           13.456661       10.909014       20.528485
  O           13.711628       10.660784       19.107192
  O           12.831196       12.210167       20.773222
  C           12.203545        9.661892       21.085070
  F           12.126927        8.564505       20.285213
  F           10.944923       10.199730       21.085341
  F           12.406511        9.243568       22.367065
  O           10.416366       36.856226       31.928889
  S            9.875060       36.898537       33.274920
  O            9.071882       35.742156       33.644497
  F            8.780034       38.058772       33.139013
  N           10.878954       37.460168       34.356062
  S           10.239295       37.642716       35.797801
  O            8.906916       38.248653       35.863430
  O           11.181943       38.242712       36.744120
  C           10.065986       35.880420       36.345227
  F            8.798344       35.396881       36.249447
  F           10.409088       35.741563       37.662952
  F           10.898662       35.033690       35.674854
  O           20.977148        5.846189       17.429688
  S           21.764514        5.900379       16.211608
  O           21.247658        6.802111       15.192472
  F           21.475010        4.456303       15.583489
  N           23.324761        5.894858       16.451810
  S           24.182839        5.806633       15.118761
  O           23.741785        4.844922       14.105211
  O           25.618219        5.720474       15.395097
  C           23.931281        7.501010       14.410803
  F           23.032389        7.543064       13.390938
  F           25.097437        7.990574       13.887537
  F           23.556457        8.416482       15.349482
  O           35.849028        4.859544        3.056681
  S           36.952667        5.429828        3.807251
  O           38.255918        4.857365        3.502748
  F           36.657346        4.870229        5.278079
  N           36.871450        6.996575        3.982776
  S           37.997768        7.599810        4.925439
  O           38.276545        6.883307        6.172679
  O           37.832405        9.041019        5.124623
  C           39.499326        7.432914        3.851722
  F           40.300226        6.385406        4.185165
  F           40.294559        8.542840        3.946950
  F           39.193805        7.332965        2.526442
  O           30.471074       28.530346       28.585491
  S           31.461869       28.848465       29.597284
  O           31.559377       27.879729       30.679386
  F           30.787077       30.110865       30.314711
  N           32.811385       29.427852       29.018304
  S           33.836316       29.911003       30.130591
  O           33.291687       30.692957       31.243528
  O           35.035067       30.515725       29.546290
  C           34.407127       28.291429       30.828125
  F           33.834048       27.973301       32.019877
  F           35.754823       28.309283       31.066443
  F           34.216466       27.248944       29.969886
  O           36.416737        8.946529       28.358500
  S           35.387942        7.931799       28.222464
  O           34.036556        8.451553       28.072423
  F           35.363172        7.307063       29.696503
  N           35.801939        6.712472       27.309256
  S           34.734944        5.537010       27.279078
  O           34.147688        5.137529       28.560579
  O           35.198636        4.395520       26.487820
  C           33.379906        6.300825       26.271179
  F           32.326220        6.741062       27.009987
  F           32.853264        5.393483       25.392101
  F           33.816457        7.331411       25.492067
  O            8.324023       31.055423        8.954885
  S            8.807032       30.065366        8.009851
  O            9.795867       30.559571        7.062821
  F            7.514776       29.850120        7.089284
  N            9.055415       28.639621        8.640453
  S            9.442589       27.523202        7.579885
  O            8.667780       27.488125        6.336848
  O            9.581223       26.203362        8.198676
  C           11.169349       28.027809        7.133712
  F           11.262964       28.671470        5.939210
  F           11.985043       26.934389        7.022008
  F           11.755928       28.807115        8.086763
  O           15.592157       35.310632       32.503451
  S           15.239736       33.953674       32.879036
  O           13.861082       33.582343       32.595617
  F           15.255999       34.053555       34.476990
  N           16.358545       32.885949       32.562288
  S           16.033222       31.429635       33.104888
  O           15.495065       31.330087       34.463997
  O           17.133784       30.495008       32.861297
  C           14.688458       30.900454       31.944295
  F           13.439754       30.976879       32.477960
  F           14.846768       29.591617       31.576483
  F           14.696229       31.597575       30.772261
  O           15.415629       22.756817       20.111955
  S           14.749348       22.322214       21.325952
  O           14.571235       23.362665       22.328268
  F           15.870113       21.387303       21.984380
  N           13.540846       21.336623       21.080530
  S           12.906933       20.748327       22.412131
  O           13.837549       20.289483       23.446595
  O           11.846812       19.777689       22.132657
  C           12.030223       22.235718       23.086258
  F           12.688472       22.845919       24.108150
  F           10.806731       21.893321       23.595406
  F           11.763120       23.170975       22.130408
  O            2.661946       28.579308       30.679615
  S            3.054053       29.184505       29.420016
  O            1.956390       29.434732       28.497291
  F            3.835314       27.975881       28.718191
  N            4.155045       30.307219       29.559401
  S            4.687743       30.864851       28.171461
  O            4.982527       29.880369       27.127144
  O            5.763979       31.841642       28.349494
  C            3.231483       31.855272       27.593730
  F            2.488580       31.234828       26.638197
  F            3.635149       33.035606       27.030467
  F            2.400934       32.218707       28.612456
  O           26.109201       33.147544       33.881554
  S           25.497525       34.371409       33.397192
  O           24.045288       34.404477       33.491067
  F           25.745580       34.246275       31.820324
  N           26.280303       35.683846       33.793256
  S           25.692995       37.007288       33.141589
  O           25.328858       36.946572       31.723697
  O           26.499292       38.184715       33.469689
  C           24.121406       37.219337       34.101040
  F           23.007079       36.832928       33.423646
  F           23.915711       38.534798       34.418294
  F           24.140933       36.568451       35.299233
  O           10.733475       19.723805        2.293040
  S           11.313815       20.871309        2.966124
  O           10.505579       22.080799        2.913319
  F           12.536959       21.222595        1.994417
  N           12.015984       20.527142        4.337477
  S           12.775330       21.754273        4.999778
  O           13.593159       22.587651        4.114715
  O           13.479175       21.367605        6.224192
  C           11.353523       22.796429        5.572297
  F           11.096559       23.864539        4.770417
  F           11.600962       23.323428        6.811024
  F           10.200057       22.083764        5.718323
  O           27.466071       13.397506       29.185249
  S           28.095525       13.962904       30.364534
  O           27.896065       13.197904       31.586783
  F           27.193870       15.262753       30.611735
  N           29.536195       14.554065       30.105499
  S           30.162379       15.301132       31.358848
  O           29.282204       16.205430       32.103318
  O           31.460087       15.903201       31.046492
  C           30.551725       13.874467       32.476183
  F           29.658063       13.708457       33.487967
  F           31.764043       14.048436       33.087265
  F           30.663338       12.692245       31.805667
  O           15.225092       33.605805       17.202556
  S           14.644406       34.935883       17.219742
  O           13.458320       35.092871       16.390612
  F           15.748267       35.773195       16.417183
  N           14.628055       35.613741       18.645344
  S           14.128343       37.120835       18.637861
  O           14.650577       37.990427       17.580609
  O           14.209276       37.732131       19.965968
  C           12.315488       36.901948       18.319983
  F           11.946890       37.161192       17.036696
  F           11.576851       37.759000       19.090229
  F           11.866632       35.657485       18.650952
  Li          31.832164       29.741588       20.484578
  Li          15.583644        8.106809       38.308515
  Li          22.547992       28.809349       23.144795
  Li           1.716869       14.939649       38.518934
  Li          40.254264       19.179125        8.973355
  Li          17.444909       27.481342       28.645682
  Li          24.626944       20.295755        6.850060
  Li          16.095237        8.409835       11.984718
  Li          31.171261        1.727394       28.583858
  Li          35.782903        8.143781       35.294487
  Li           4.436041       18.506739        4.496566
  Li          18.575449       36.207461       36.024292
  Li           2.279732       16.625261       10.697248
  Li          27.190374        6.524740       16.707087
  Li          19.753609       25.815874       31.315925
  Li          30.025988       23.859213        7.691064
  Li           9.477103       28.867097       23.390924
  Li           1.288136       16.630487       30.099665
  Li          29.496728       25.784862        2.952265
  Li           9.783573        3.436513       11.784278
  Li          23.184606        3.257855       16.277078
  Li          19.154549       16.756075       16.399396
  Li          29.340083        6.034583       35.643064
  Li          23.769799        5.723150       22.654628
  Li          35.507201       12.560698       18.836805
  Li          16.125074       26.238846       15.714519
  Li           6.062955       32.011263       22.579211
  Li          38.329389       20.260249        0.999071
  Li          23.607921       35.233584       14.528944
  Li          20.414220       32.226947       30.338951
  Li          22.245847       10.109858       14.071315
  Li          27.071597       13.356160        8.513191
  Li          23.129928        8.993187        7.207582
  Li           2.504238        3.422237       34.069867
