        4862
  Built with Packmol                                             
  C           32.261989        3.046627       14.415586
  C           31.796131        1.718996       14.967105
  O           31.136065        1.898323       16.222156
  C           31.952835        1.912507       17.309026
  O           33.161046        1.784015       17.305155
  O           31.178406        2.092071       18.407487
  C           31.909591        2.123821       19.633521
  H           31.418537        3.746766       14.330181
  H           32.713710        2.918367       13.422612
  H           32.995519        3.512202       15.070928
  H           31.059331        1.269565       14.279690
  H           32.625943        1.001430       15.042010
  H           32.435019        1.171140       19.798820
  H           31.198245        2.269234       20.449574
  H           32.614573        2.957713       19.638457
  C           15.886065       25.742291       39.130338
  C           15.400175       27.168351       39.011740
  O           16.276536       27.931818       38.179809
  C           17.341185       28.487870       38.816934
  O           17.600960       28.398244       40.000482
  O           18.066415       29.168994       37.895679
  C           19.223418       29.813346       38.429490
  H           15.994301       25.287113       38.135352
  H           15.180950       25.138706       39.717703
  H           16.862464       25.695127       39.608586
  H           14.407863       27.183400       38.529568
  H           15.269943       27.632112       40.000206
  H           18.939557       30.558879       39.187515
  H           19.731186       30.331024       37.612617
  H           19.911568       29.078217       38.851906
  C            2.167215        5.259421       29.893631
  C            3.424500        5.389526       30.721947
  O            3.593738        6.735174       31.173157
  C            4.238970        7.559798       30.305822
  O            4.676351        7.257765       29.213222
  O            4.314146        8.786751       30.878127
  C            4.976821        9.762360       30.073237
  H            1.292416        5.606128       30.462332
  H            2.002345        4.214358       29.598401
  H            2.221582        5.868000       28.993089
  H            3.342233        4.758115       31.623031
  H            4.306639        5.029934       30.172743
  H            6.018727        9.465639       29.879872
  H            4.985401       10.706607       30.622257
  H            4.439796        9.914526       29.134701
  C           31.024671       14.016061       32.567890
  C           30.098191       13.215016       31.682587
  O           28.963189       13.996486       31.303015
  C           27.925806       13.975464       32.181646
  O           27.880349       13.362229       33.229586
  O           26.940934       14.760564       31.679405
  C           25.777092       14.829326       32.503749
  H           31.326578       14.947774       32.068226
  H           31.927400       13.438800       32.809448
  H           30.536643       14.299022       33.498514
  H           30.621715       12.938374       30.751570
  H           29.801078       12.270925       32.161665
  H           25.324659       13.833324       32.623271
  H           25.050209       15.479372       32.011631
  H           26.021050       15.260199       33.477008
  C           18.574114       32.701552       13.688616
  C           19.934445       32.833654       14.333479
  O           20.145256       34.169504       14.796150
  C           20.647323       35.030141       13.871037
  O           20.929157       34.766841       12.718846
  O           20.784157       36.242192       14.463328
  C           21.310034       37.252359       13.602040
  H           17.784009       33.015240       14.385921
  H           18.385169       31.661927       13.388651
  H           18.490059       33.335535       12.808105
  H           19.991321       32.176288       15.217806
  H           20.734793       32.506699       13.654036
  H           22.318239       36.981635       13.253858
  H           21.382051       38.181192       14.172289
  H           20.642405       37.419579       12.754273
  C           15.400039       11.308874       22.369795
  C           14.774107       11.832080       21.097684
  O           15.697402       11.747392       20.009863
  C           16.535114       12.810079       19.877449
  O           16.561550       13.799921       20.581590
  O           17.339693       12.573700       18.811908
  C           18.276863       13.618625       18.549908
  H           15.761262       10.280159       22.227801
  H           14.672261       11.314993       23.192475
  H           16.258918       11.908774       22.664323
  H           13.904548       11.208631       20.828283
  H           14.391747       12.854663       21.228926
  H           17.756311       14.560500       18.319917
  H           18.869547       13.332618       17.678113
  H           18.952457       13.749716       19.397722
  C           16.628185       29.790527       35.622035
  C           16.873154       28.608864       34.712386
  O           15.661991       27.882329       34.492764
  C           15.377484       26.935502       35.426131
  O           16.048542       26.658392       36.400395
  O           14.207530       26.346283       35.075947
  C           13.784096       25.319463       35.973246
  H           15.839821       30.437428       35.211059
  H           17.543655       30.385570       35.741775
  H           16.293870       29.469629       36.606696
  H           17.215871       28.964774       33.725840
  H           17.672069       27.961097       35.101273
  H           14.522593       24.504406       36.009340
  H           12.841160       24.911701       35.602166
  H           13.613487       25.728305       36.971314
  C            9.437067       39.073601       38.912882
  C            9.605388       38.226518       37.672753
  O           10.970464       37.834600       37.511608
  C           11.754147       38.725676       36.847963
  O           11.401953       39.793929       36.388511
  O           13.006248       38.209265       36.783452
  C           13.943641       39.044595       36.103513
  H            9.809647       38.539632       39.798862
  H            8.379465       39.323542       39.072594
  H           10.003370       40.000000       38.839490
  H            9.016302       37.299096       37.774072
  H            9.220839       38.740270       36.779848
  H           13.638353       39.202586       35.058124
  H           14.912259       38.539743       36.105361
  H           14.052232       40.000000       36.621017
  C           17.164937       19.646760       19.684880
  C           18.577417       19.110395       19.716705
  O           19.035793       18.819118       18.394566
  C           18.717775       17.581080       17.931181
  O           18.099428       16.723558       18.530014
  O           19.218205       17.466802       16.676147
  C           18.960211       16.203927       16.061829
  H           17.101848       20.530215       19.033399
  H           16.833511       19.929693       20.693149
  H           16.470231       18.909377       19.287452
  H           19.256083       19.876513       20.128864
  H           18.660602       18.236291       20.378614
  H           19.424342       15.388588       16.636985
  H           19.403452       16.214928       15.063573
  H           17.885576       16.039207       15.959716
  C           18.437391        4.711809       31.067498
  C           18.186479        6.019060       31.782996
  O           19.223666        6.282044       32.730668
  C           19.040101        5.727814       33.958566
  O           18.093940        5.051755       34.310734
  O           20.102705        6.066775       34.729655
  C           20.041685        5.551431       36.059880
  H           19.427451        4.717052       30.589320
  H           17.675549        4.538502       30.295448
  H           18.424118        3.872458       31.760040
  H           18.200001        6.848701       31.055732
  H           17.192084        6.036122       32.252026
  H           19.159733        5.942402       36.589315
  H           20.936005        5.881246       36.593278
  H           20.030579        4.459578       36.048335
  C           22.344669        9.381852        1.984541
  C           23.715961        9.998314        2.137288
  O           24.326020        9.574154        3.358319
  C           24.014548       10.320854        4.451033
  O           23.286836       11.293523        4.476515
  O           24.665647        9.790036        5.515412
  C           24.431820       10.482130        6.742249
  H           22.405121        8.285656        2.044538
  H           21.900132        9.656585        1.018411
  H           21.674041        9.706384        2.777786
  H           24.370105        9.656083        1.317304
  H           23.674505       11.094528        2.061828
  H           24.781528       11.523383        6.675188
  H           24.999066        9.979845        7.529041
  H           23.372746       10.448384        7.006112
  C           15.430394       21.663866       39.263115
  C           16.116507       20.613487       38.420647
  O           17.044673       21.218815       37.517826
  C           16.516382       21.631868       36.335077
  O           15.356669       21.528436       35.987703
  O           17.517282       22.179864       35.602617
  C           17.104076       22.657688       34.322092
  H           16.171722       22.274865       39.797917
  H           14.763200       21.196616       40.000020
  H           14.843537       22.343419       38.648211
  H           16.697527       19.937528       39.070949
  H           15.387173       19.982262       37.892700
  H           16.709110       21.834550       33.707725
  H           17.978292       23.073996       33.816589
  H           16.359214       23.448886       34.429731
  C           35.821560       19.653270       36.165340
  C           36.160778       19.837288       34.704221
  O           36.065030       21.214577       34.334208
  C           34.824900       21.629066       33.961548
  O           33.820734       20.946764       33.912416
  O           34.904632       22.945735       33.647500
  C           33.664805       23.518584       33.231000
  H           36.465997       20.284506       36.793943
  H           35.955020       18.605463       36.466654
  H           34.793526       19.943792       36.372807
  H           37.204964       19.529674       34.524085
  H           35.536060       19.198748       34.063055
  H           33.292455       23.023173       32.321647
  H           33.837707       24.572327       33.001149
  H           32.925478       23.457670       34.032302
  C           25.132037       29.734302       24.676500
  C           24.824618       28.706501       25.740887
  O           26.031670       28.177781       26.294495
  C           26.565408       27.124853       25.619910
  O           26.113871       26.606251       24.618179
  O           27.695999       26.748014       26.266715
  C           28.365880       25.639584       25.665514
  H           25.771436       30.531350       25.082434
  H           24.207110       30.186782       24.294045
  H           25.670199       29.290512       23.841197
  H           24.274868       29.183855       26.569928
  H           24.170853       27.911161       25.354720
  H           27.719961       24.748640       25.662620
  H           29.254772       25.416818       26.259943
  H           28.683502       25.887611       24.650625
  C           17.293183        7.172284        3.743714
  C           17.625096        8.625137        3.994413
  O           16.950720        9.102127        5.160902
  C           15.689153        9.564109        4.952044
  O           15.104631        9.609817        3.887833
  O           15.193925        9.972360        6.146481
  C           13.864992       10.489934        6.076803
  H           17.535699        6.562850        4.626140
  H           17.858689        6.786752        2.884605
  H           16.231473        7.036927        3.546860
  H           18.706752        8.731207        4.184598
  H           17.404381        9.245585        3.113829
  H           13.825460       11.376169        5.425631
  H           13.564153       10.790023        7.083055
  H           13.172305        9.722753        5.724640
  C           26.533556        9.661594       34.102598
  C           26.874933       11.081208       33.712781
  O           26.222745       12.012412       34.579101
  C           24.959359       12.356680       34.213128
  O           24.356485       11.955882       33.237320
  O           24.486536       13.235431       35.131189
  C           23.158425       13.689472       34.868950
  H           26.789309        9.478209       35.156097
  H           27.082589        8.944000       33.478001
  H           25.468095        9.467127       33.996411
  H           27.960117       11.246098       33.824978
  H           26.641049       11.275127       32.655996
  H           23.110645       14.219165       33.905549
  H           22.876288       14.388788       35.659175
  H           22.456980       12.852705       34.882948
  C            7.854177       13.229641       30.188370
  C            7.137588       14.346980       29.465975
  O            8.074503       15.290777       28.942106
  C            8.453164       16.270725       29.805192
  O            8.069919       16.411808       30.949534
  O            9.336664       17.072394       29.160713
  C            9.820105       18.157358       29.953139
  H            8.583993       12.745515       29.523622
  H            7.140244       12.471390       30.537448
  H            8.407346       13.604254       31.047421
  H            6.582269       13.936406       28.605482
  H            6.391058       14.830042       30.112848
  H            8.993392       18.817504       30.256047
  H           10.517348       18.737911       29.344937
  H           10.355089       17.784382       30.828970
  C           27.516001       10.411435        8.306601
  C           28.373363       11.483162        7.674041
  O           29.510018       10.903995        7.029384
  C           30.589123       10.700643        7.831119
  O           30.669334       10.966616        9.013965
  O           31.569851       10.148979        7.074522
  C           32.775075        9.882171        7.792191
  H           27.216478        9.664328        7.557590
  H           26.610212       10.848335        8.748375
  H           28.058069        9.879461        9.086001
  H           27.796022       12.007722        6.893711
  H           28.666711       12.248116        8.407452
  H           33.203947       10.812774        8.193497
  H           33.494851        9.444858        7.096647
  H           32.592800        9.165091        8.595292
  C           22.524250       32.587870       17.875906
  C           23.721643       31.667737       17.817570
  O           24.775901       32.260266       17.055698
  C           24.712506       32.045320       15.714662
  O           23.863303       31.406193       15.125874
  O           25.772446       32.669420       15.144025
  C           25.836200       32.523477       13.725069
  H           22.810632       33.569254       18.280592
  H           21.736960       32.161815       18.512421
  H           22.110118       32.762130       16.884731
  H           24.114989       31.505588       18.835601
  H           23.447579       30.675473       17.431047
  H           25.936191       31.463621       13.446310
  H           26.720066       33.056834       13.368124
  H           24.954799       32.963518       13.254010
  C            4.118478       11.516206       36.502263
  C            3.249171       12.684962       36.904895
  O            2.554520       13.210349       35.771568
  C            3.239328       14.138771       35.052074
  O            4.357517       14.552201       35.286658
  O            2.449820       14.529691       34.021318
  C            3.045111       15.514650       33.176164
  H            3.517858       10.741728       36.003925
  H            4.604561       11.071964       37.381394
  H            4.890355       11.820864       35.798211
  H            2.481650       12.346924       37.621861
  H            3.832813       13.461033       37.420818
  H            3.263537       16.433030       33.741734
  H            2.332047       15.759954       32.385933
  H            3.952899       15.123908       32.711792
  C           14.377029       29.031246       30.451012
  C           13.058019       29.763003       30.543447
  O           13.195602       30.953357       31.322632
  C           13.046083       30.787874       32.663848
  O           12.806948       29.745095       33.239805
  O           13.207164       31.999110       33.251690
  C           13.071749       31.976441       34.672939
  H           15.156901       29.690746       30.043875
  H           14.288225       28.149957       29.801440
  H           14.718096       28.704428       31.431401
  H           12.735871       30.076003       29.535652
  H           12.262965       29.110774       30.932789
  H           12.064251       31.642267       34.963243
  H           13.215940       32.993550       35.044150
  H           13.833599       31.335084       35.120874
  C           23.187574        9.485260       14.556617
  C           22.935134        9.482508       16.046606
  O           22.512037       10.774312       16.488454
  C           23.515711       11.638973       16.794394
  O           24.707687       11.412029       16.731224
  O           22.951081       12.806702       17.189617
  C           23.895879       13.815357       17.548467
  H           22.292995        9.823076       14.013930
  H           23.452256        8.478840       14.205102
  H           23.994460       10.166233       14.292967
  H           22.117786        8.780111       16.283208
  H           23.815685        9.129829       16.602795
  H           24.513089       13.486734       18.398207
  H           23.342325       14.706991       17.851230
  H           24.524489       14.073897       16.693828
  C           19.422790       10.017517       15.603288
  C           19.308192       11.311962       16.374701
  O           19.277200       12.428823       15.483264
  C           20.494503       12.910188       15.115757
  O           21.575674       12.487454       15.474456
  O           20.290992       13.955173       14.276002
  C           21.493894       14.566581       13.809090
  H           18.604124        9.928259       14.874783
  H           19.383869        9.155187       16.282532
  H           20.353664        9.972513       15.041372
  H           18.359323       11.325737       16.937604
  H           20.110656       11.407894       17.120321
  H           22.074851       14.975670       14.649408
  H           21.220889       15.391447       13.147150
  H           22.091898       13.851766       13.240029
  C           20.644375       26.918409       36.688804
  C           19.875312       26.127177       37.721418
  O           20.565640       24.918724       38.047134
  C           20.299425       23.862551       37.233360
  O           19.542218       23.856908       36.283146
  O           21.028218       22.806725       37.672327
  C           20.843293       21.615984       36.906337
  H           21.666410       27.120993       37.039951
  H           20.147437       27.876190       36.483354
  H           20.733392       26.368278       35.754067
  H           19.796687       26.711759       38.653878
  H           18.844596       25.931555       37.392091
  H           19.794672       21.284797       36.947688
  H           21.467862       20.832218       37.340761
  H           21.156676       21.772431       35.872067
  C           36.536750       22.873746       23.259384
  C           36.428916       24.231693       23.913718
  O           35.203362       24.345029       24.640472
  C           34.133620       24.759144       23.910568
  O           34.131700       25.038353       22.728054
  O           33.061380       24.811092       24.738941
  C           31.856898       25.238340       24.102166
  H           36.437886       22.075069       24.008544
  H           37.504867       22.761921       22.752683
  H           35.745018       22.722521       22.528227
  H           37.246454       24.357757       24.643881
  H           36.543542       25.041980       23.179281
  H           31.967507       26.257817       23.702876
  H           31.061696       25.247693       24.850942
  H           31.574754       24.543103       23.308792
  C           39.080990       33.600445        6.261930
  C           38.151736       34.660208        6.807079
  O           38.810655       35.443402        7.804794
  C           38.758297       34.937651        9.065775
  O           38.210174       33.908749        9.408154
  O           39.425657       35.789846        9.882472
  C           39.448663       35.382929       11.250935
  H           40.001523       34.057682        5.871477
  H           38.597185       33.038363        5.451685
  H           39.379979       32.898690        7.038104
  H           37.861965       35.351702        5.997592
  H           37.218004       34.219859        7.185676
  H           38.427869       35.326897       11.658169
  H           40.003831       36.132743       11.818974
  H           39.958405       34.423123       11.357413
  C           10.819838       28.621524       34.913557
  C           11.873360       27.550875       34.747419
  O           11.616028       26.767483       33.579910
  C           10.769275       25.719260       33.761121
  O           10.232125       25.397499       34.802390
  O           10.630453       25.087430       32.569434
  C            9.763467       23.953701       32.611795
  H           10.761561       29.249155       34.012678
  H           11.050191       29.263614       35.774462
  H            9.833263       28.186688       35.061499
  H           12.861296       28.021236       34.605490
  H           11.956051       26.925198       35.647859
  H           10.152374       23.191191       33.303409
  H            9.722841       23.519556       31.610312
  H            8.753346       24.253511       32.898446
  C           28.423592       23.758993       32.935826
  C           29.138157       25.090257       32.966359
  O           28.538779       25.962021       33.927490
  C           27.484116       26.688885       33.471469
  O           27.024068       26.665345       32.347147
  O           27.033738       27.454123       34.496248
  C           25.919682       28.280275       34.156908
  H           28.409598       23.305083       33.937161
  H           28.920886       23.066414       32.243342
  H           27.386984       23.873034       32.624799
  H           30.185913       24.941955       33.278790
  H           29.175980       25.549115       31.967801
  H           26.188594       28.988928       33.359100
  H           25.638724       28.852727       35.043734
  H           25.065993       27.669112       33.856748
  C            1.516138       34.292573       34.688039
  C            2.963976       33.987473       34.995415
  O            3.613490       35.133136       35.550923
  C            4.128089       36.004136       34.642547
  O            4.088829       35.892269       33.433314
  O            4.701223       37.025533       35.325822
  C            5.291174       38.022580       34.491162
  H            0.997550       34.651948       35.588493
  H            0.999446       33.396032       34.319606
  H            1.427173       35.075258       33.937180
  H            3.021871       33.188074       35.753708
  H            3.492303       33.609847       34.108077
  H            6.097703       37.591304       33.879189
  H            5.723120       38.792201       35.134750
  H            4.534497       38.488905       33.856827
  C           25.761797       22.644004       10.229720
  C           25.510282       23.507157        9.015015
  O           24.182784       23.310362        8.523061
  C           24.035046       22.275559        7.653603
  O           24.911249       21.528379        7.265931
  O           22.730380       22.224247        7.287796
  C           22.427653       21.177450        6.365098
  H           25.010745       22.843535       11.007543
  H           26.759129       22.839795       10.646245
  H           25.691584       21.585939        9.985042
  H           25.593872       24.571769        9.292530
  H           26.264369       23.331746        8.234192
  H           22.989073       21.309481        5.427882
  H           21.360841       21.225081        6.135438
  H           22.641537       20.202240        6.807387
  C           32.586052       21.007224       28.930272
  C           32.560259       19.497092       28.878927
  O           31.270571       19.002305       29.246202
  C           31.075873       18.827760       30.580454
  O           31.883463       19.045168       31.461835
  O           29.815228       18.361043       30.758075
  C           29.470945       18.126201       32.123768
  H           31.796509       21.428941       28.291777
  H           33.556616       21.391506       28.588464
  H           32.406404       21.372230       29.939627
  H           32.750863       19.157580       27.846550
  H           33.356118       19.060190       29.499270
  H           30.129910       17.364067       32.566393
  H           28.444898       17.752993       32.156063
  H           29.517890       19.054716       32.696530
  C           17.014713       19.084472       26.391866
  C           16.679692       17.841455       27.183365
  O           16.589222       16.704545       26.321826
  C           15.371792       16.507266       25.749512
  O           14.380828       17.192317       25.907613
  O           15.454814       15.401840       24.968653
  C           14.236416       15.069851       24.302252
  H           17.941668       18.939231       25.818666
  H           17.146131       19.946909       27.059273
  H           16.231465       19.319836       25.673933
  H           17.487537       17.632170       27.905159
  H           15.763699       17.977264       27.776336
  H           13.440042       14.854233       25.030467
  H           14.409129       14.170676       23.706639
  H           13.934824       15.875681       23.629884
  C           22.035827       18.206297       17.233619
  C           22.065948       16.896898       16.479718
  O           23.397022       16.379342       16.421594
  C           24.152202       16.838711       15.388499
  O           23.800470       17.625141       14.531696
  O           25.374637       16.258914       15.478440
  C           26.279439       16.650364       14.445532
  H           22.463897       18.083148       18.238851
  H           21.005637       18.574068       17.333381
  H           22.626738       18.967786       16.728388
  H           21.454724       16.148155       17.011874
  H           21.624634       16.999714       15.477835
  H           25.891063       16.361881       13.457129
  H           27.225768       16.129486       14.607544
  H           26.466628       17.725395       14.486377
  C           10.455190       33.397959       28.161015
  C           10.266648       31.969859       28.617945
  O            9.016581       31.817958       29.294153
  C            9.039650       32.100274       30.623952
  O           10.005908       32.455379       31.269357
  O            7.787977       31.911090       31.109879
  C            7.663822       32.169581       32.508653
  H            9.614103       33.715150       27.527878
  H           11.385801       33.503054       27.587065
  H           10.491753       34.082562       29.006167
  H           10.239426       31.300303       27.741387
  H           11.109218       31.631800       29.238341
  H            8.308209       31.492085       33.088968
  H            6.626268       31.986825       32.797065
  H            7.904144       33.211702       32.729173
  C           28.579848       20.404300       36.588706
  C           27.642560       20.204468       35.420221
  O           26.943523       21.415042       35.122132
  C           25.801632       21.614214       35.832777
  O           25.335055       20.869593       36.671911
  O           25.267116       22.795608       35.436294
  C           24.050750       23.134484       36.102940
  H           29.275579       21.231846       36.388644
  H           29.163324       19.493446       36.779494
  H           28.034170       20.660716       37.494679
  H           28.223038       19.940440       34.519813
  H           26.951322       19.367981       35.597926
  H           23.274067       22.380736       35.903878
  H           23.705330       24.094275       35.712316
  H           24.218149       23.239837       37.176848
  C            7.099156       18.022375       22.902172
  C            6.260631       19.019589       23.667836
  O            5.059569       18.408022       24.143689
  C            4.021588       18.410143       23.265513
  O            4.025983       18.878984       22.144590
  O            2.970649       17.797089       23.864089
  C            1.798692       17.729999       23.051183
  H            7.315112       17.141456       23.523658
  H            8.050712       18.473189       22.589432
  H            6.578623       17.665219       22.015727
  H            6.815898       19.367175       24.555678
  H            6.050797       19.915018       23.065111
  H            1.442204       18.739631       22.797099
  H            1.017339       17.224161       23.622773
  H            1.992346       17.151321       22.145629
  C           11.524191       18.207061       23.275122
  C           10.839950       18.564631       21.975984
  O           11.744795       18.434098       20.877250
  C           12.508310       19.529931       20.622703
  O           12.484007       20.582689       21.228846
  O           13.305096       19.243356       19.563644
  C           14.166399       20.315351       19.179215
  H           11.949067       17.194367       23.221912
  H           10.814228       18.246369       24.112324
  H           12.347688       18.885663       23.488784
  H           10.007843       17.864382       21.789840
  H           10.394172       19.568860       22.019629
  H           13.580789       21.195867       18.874662
  H           14.758923       19.984744       18.323228
  H           14.848835       20.569982       19.992752
  C           28.747044        8.244065       31.723851
  C           27.529233        7.737704       30.986061
  O           27.534571        6.309680       30.925062
  C           28.224057        5.777379       29.881097
  O           28.814771        6.394496       29.017081
  O           28.133774        4.427341       29.969680
  C           28.814891        3.730936       28.925698
  H           28.803482        7.798680       32.727518
  H           28.713175        9.337166       31.826239
  H           29.664872        7.974282       31.205095
  H           26.616201        8.031005       31.531723
  H           27.449073        8.187955       29.986087
  H           28.390266        3.988520       27.943687
  H           28.679282        2.659248       29.087543
  H           29.884215        3.950618       28.951894
  C           36.335137        6.361746       20.446798
  C           34.965059        6.892579       20.093386
  O           34.994814        7.564397       18.832126
  C           35.344183        8.877366       18.883640
  O           35.620187        9.511744       19.882482
  O           35.326841        9.361158       17.617052
  C           35.673250       10.742918       17.519370
  H           36.712237        5.704843       19.649819
  H           36.301243        5.791595       21.385030
  H           37.055736        7.169408       20.559577
  H           34.256610        6.052839       19.991716
  H           34.566400        7.537888       20.889469
  H           34.958539       11.364517       18.079552
  H           35.626957       11.031115       16.466802
  H           36.691204       10.909640       17.877660
  C           30.694075       27.949189       26.044700
  C           30.788341       28.285833       27.514933
  O           30.680572       27.103346       28.310614
  C           29.410882       26.724063       28.614969
  O           28.389208       27.291362       28.282322
  O           29.483251       25.596036       29.363913
  C           28.212094       25.082235       29.762622
  H           31.457315       27.207485       25.768583
  H           30.839115       28.847757       25.429852
  H           29.726739       27.515349       25.799050
  H           31.775589       28.728239       27.731771
  H           30.042147       29.040302       27.803155
  H           27.674348       25.812782       30.385623
  H           28.381094       24.182245       30.358069
  H           27.616804       24.810156       28.888549
  C           26.472869        1.822674        5.155126
  C           27.184797        2.816320        6.043735
  O           26.287220        3.842979        6.471903
  C           26.162680        4.895359        5.620089
  O           26.737001        5.036171        4.558662
  O           25.282419        5.769750        6.167063
  C           25.055511        6.935926        5.375010
  H           25.596988        1.402365        5.669978
  H           27.144477        0.999555        4.875986
  H           26.109130        2.295176        4.244777
  H           27.546411        2.307827        6.953719
  H           28.074100        3.232854        5.549023
  H           25.988260        7.504588        5.242333
  H           24.339123        7.570235        5.901831
  H           24.629071        6.665308        4.406860
  C           27.142337       13.324627       19.564819
  C           27.924257       13.643075       18.311427
  O           28.486243       12.453764       17.752220
  C           29.696506       12.093025       18.255936
  O           30.325748       12.681543       19.112675
  O           30.084698       10.955584       17.628135
  C           31.352391       10.459322       18.058807
  H           26.367447       12.573027       19.356147
  H           26.658117       14.227406       19.961077
  H           27.785875       12.910305       20.338444
  H           27.247645       14.065941       17.549338
  H           28.692321       14.407007       18.500065
  H           32.147671       11.191988       17.854531
  H           31.570689        9.549927       17.494496
  H           31.325194       10.207369       19.120965
  C           16.299806       16.017932        8.301204
  C           17.781698       15.813329        8.086882
  O           18.205914       16.435885        6.872194
  C           18.073988       15.673534        5.754153
  O           17.643534       14.538523        5.701619
  O           18.513756       16.404002        4.699819
  C           18.436421       15.720686        3.448460
  H           16.052243       17.089144        8.290311
  H           15.983947       15.594388        9.264191
  H           15.716977       15.549676        7.510415
  H           18.344766       16.292985        8.905591
  H           18.048067       14.746803        8.112754
  H           19.062883       14.816012        3.458953
  H           18.813610       16.390041        2.672063
  H           17.400565       15.468437        3.212296
  C           31.721143        5.407656        5.094670
  C           30.420402        4.681770        4.839800
  O           29.309518        5.566631        5.000914
  C           28.841661        5.682967        6.272203
  O           29.271584        5.111094        7.254256
  O           27.800741        6.551716        6.253192
  C           27.203410        6.768964        7.531784
  H           31.808100        6.286107        4.439184
  H           32.578356        4.746003        4.910548
  H           31.778398        5.769646        6.119358
  H           30.394205        4.322294        3.796971
  H           30.326506        3.789864        5.476029
  H           26.793732        5.830635        7.935147
  H           26.380738        7.476515        7.406551
  H           27.927494        7.201880        8.225100
  C            5.123573       39.199290        4.900947
  C            5.539865       38.051040        4.010991
  O            4.429282       37.578692        3.245163
  C            3.655645       36.646030        3.861788
  O            3.825988       36.188815        4.974550
  O            2.655267       36.308657        3.010893
  C            1.759136       35.325765        3.530193
  H            4.673417       40.006259        4.305078
  H            5.988486       39.604158        5.443633
  H            4.375977       38.886458        5.627264
  H            6.300941       38.396744        3.290815
  H            6.008364       37.242612        4.590692
  H            2.291486       34.386367        3.742647
  H            0.998700       35.125145        2.772176
  H            1.260834       35.696962        4.428139
  C           31.055721       34.491170       27.296202
  C           32.413434       33.829522       27.244855
  O           32.809846       33.596934       25.891429
  C           32.368142       32.430048       25.351176
  O           31.689012       31.589447       25.906581
  O           32.824327       32.364528       24.075950
  C           32.436309       31.178758       23.381549
  H           31.057555       35.422479       26.711771
  H           30.777041       34.727310       28.332096
  H           30.286586       33.850421       26.869386
  H           33.169606       34.499158       27.688918
  H           32.432724       32.904929       27.839713
  H           32.838030       30.284814       23.882034
  H           32.853496       31.223801       22.373072
  H           31.348876       31.118996       23.302069
  C           20.111624       26.626565       18.424767
  C           20.078279       27.425137       17.142203
  O           20.479493       28.776366       17.379287
  C           19.484202       29.615464       17.771601
  O           18.315018       29.324294       17.928215
  O           20.026307       30.844710       17.955113
  C           19.086537       31.837001       18.368623
  H           21.109304       26.675315       18.884286
  H           19.864104       25.573573       18.233871
  H           19.406735       27.019968       19.154606
  H           20.797369       26.999869       16.421470
  H           19.091009       27.371696       16.661014
  H           18.303488       31.973473       17.607564
  H           19.620333       32.782856       18.484901
  H           18.645071       31.570093       19.331051
  C           10.080575       15.278051        5.040921
  C           11.032960       14.478254        5.899458
  O           12.219649       15.228109        6.168692
  C           13.194523       15.127214        5.226332
  O           13.146588       14.468504        4.206478
  O           14.239851       15.892066        5.627446
  C           15.347845       15.877940        4.726919
  H            9.848327       16.241794        5.516484
  H            9.142448       14.728431        4.884927
  H           10.515801       15.500867        4.068691
  H           10.562610       14.263215        6.874101
  H           11.261332       13.503228        5.445288
  H           15.753105       14.860072        4.623428
  H           16.130137       16.518097        5.140825
  H           15.056024       16.276539        3.753082
  C           34.957472        5.075249        1.615774
  C           34.449467        4.754364        3.002411
  O           34.308010        5.947892        3.776027
  C           35.431477        6.353247        4.425727
  O           36.513281        5.800308        4.409668
  O           35.131658        7.488574        5.103770
  C           36.227593        8.029557        5.842055
  H           34.295670        5.799959        1.120078
  H           35.007418        4.167048        1.000000
  H           35.948595        5.523282        1.651012
  H           33.447666        4.297073        2.934003
  H           35.091640        4.016732        3.505017
  H           36.573634        7.316089        6.605088
  H           35.882424        8.933369        6.349089
  H           37.045098        8.301834        5.171271
  C           38.780081       14.902531       36.347540
  C           37.494100       15.694894       36.300480
  O           36.997381       15.770437       34.962361
  C           37.497735       16.790693       34.215820
  O           38.304095       17.623288       34.580334
  O           36.932893       16.719904       32.985152
  C           37.367476       17.742223       32.088046
  H           38.633338       13.902069       35.915749
  H           39.130124       14.790282       37.382610
  H           39.564461       15.385953       35.768446
  H           36.721376       15.184149       36.900011
  H           37.620236       16.692589       36.745221
  H           37.102872       18.738107       32.474309
  H           36.855483       17.597209       31.134141
  H           38.443371       17.669885       31.915952
  C            4.414597       14.113953       23.541435
  C            3.911446       14.408425       22.147187
  O            4.747330       13.787357       21.168120
  C            5.831171       14.514449       20.787035
  O            6.138224       15.618022       21.192183
  O            6.513275       13.790307       19.865648
  C            7.684516       14.439068       19.369561
  H            4.487649       13.029082       23.704591
  H            3.738718       14.537792       24.296450
  H            5.409486       14.526007       23.698623
  H            2.900795       13.984353       22.020117
  H            3.816081       15.490163       21.974424
  H            7.423994       15.382103       18.865761
  H            8.154940       13.778101       18.638177
  H            8.395453       14.618944       20.178642
  C            8.949205       15.922807        9.460311
  C           10.305497       15.367961        9.829657
  O           11.176627       16.414334       10.264670
  C           11.854940       17.052314        9.273976
  O           11.789772       16.812170        8.084697
  O           12.626389       18.008057        9.848451
  C           13.404396       18.761822        8.918213
  H            8.517656       16.481171       10.303456
  H            8.259479       15.113308        9.185559
  H            9.019138       16.615439        8.623847
  H           10.201764       14.666232       10.674771
  H           10.742904       14.791384        9.001808
  H           14.104133       18.108392        8.375629
  H           13.986190       19.496788        9.478963
  H           12.756548       19.295632        8.219830
  C           33.740829       14.081175       36.964736
  C           32.590646       13.428950       36.232969
  O           31.962760       14.360280       35.349009
  C           30.993900       15.130160       35.912209
  O           30.623032       15.091449       37.068607
  O           30.506294       15.952440       34.950597
  C           29.469275       16.823238       35.403479
  H           34.460903       14.506868       36.251169
  H           34.263396       13.351017       37.597423
  H           33.396601       14.899454       37.594202
  H           32.969258       12.601386       35.609118
  H           31.870045       12.982592       36.933396
  H           28.603464       16.245539       35.760739
  H           29.147497       17.436349       34.558699
  H           29.839927       17.485718       36.188424
  C           16.690643       15.594404       38.499683
  C           17.180244       15.734180       37.076815
  O           16.154933       16.277321       36.242109
  C           15.293827       15.366294       35.715680
  O           15.323823       14.163497       35.885030
  O           14.390910       16.037898       34.959183
  C           13.418245       15.198740       34.335855
  H           16.331170       16.560919       38.881165
  H           17.496213       15.236076       39.154785
  H           15.857088       14.897825       38.564991
  H           18.027236       16.440506       37.043514
  H           17.559767       14.778751       36.686665
  H           13.900567       14.485278       33.650774
  H           12.746036       15.832663       33.753294
  H           12.828272       14.670866       35.087972
  C            1.931559        9.611850       14.331507
  C            2.599998        9.745692       15.680238
  O            3.768918       10.562676       15.584521
  C            4.906879        9.906318       15.234037
  O            5.013101        8.717433       15.006949
  O            5.911834       10.815345       15.185683
  C            7.178716       10.260753       14.830383
  H            1.697054       10.602699       13.916625
  H            0.999575        9.036535       14.414678
  H            2.581824        9.113809       13.614980
  H            1.915800       10.247855       16.385296
  H            2.825132        8.761839       16.116643
  H            7.497641        9.511472       15.570562
  H            7.913207       11.069183       14.822403
  H            7.138900        9.821718       13.831352
  C           11.262471        4.592946        6.166917
  C           10.150271        3.569846        6.158071
  O            9.464872        3.559686        7.412313
  C           10.013208        2.759776        8.365241
  O           11.004851        2.068321        8.243452
  O            9.252755        2.865032        9.482932
  C            9.713224        2.068247       10.574674
  H           10.869516        5.588465        6.418769
  H           11.749774        4.646232        5.183964
  H           12.016651        4.351521        6.913393
  H            9.405785        3.837679        5.389041
  H           10.524836        2.571291        5.890325
  H            9.698914        0.999973       10.310880
  H            9.035563        2.222523       11.417333
  H           10.715974        2.375994       10.878293
  C            9.851822       38.677817       18.929564
  C            9.758658       37.634148       17.840584
  O            8.395003       37.285037       17.592462
  C            7.893797       36.305144       18.390712
  O            8.490737       35.713916       19.268444
  O            6.602887       36.097387       18.031564
  C            5.945895       35.082381       18.791118
  H            9.251083       39.561398       18.670148
  H           10.893518       38.992861       19.078280
  H            9.467435       38.299320       19.874702
  H           10.160269       38.044196       16.898262
  H           10.368856       36.750591       18.077405
  H            6.446104       34.111163       18.658726
  H            4.921032       34.993176       18.423968
  H            5.910651       35.355945       19.847679
  C           21.206715       22.286299       32.727091
  C           20.551645       23.386936       31.925042
  O           21.411747       24.524939       31.834650
  C           21.319008       25.404225       32.867537
  O           20.584418       25.310638       33.830822
  O           22.192567       26.414213       32.632123
  C           22.199815       27.422108       33.643506
  H           22.181607       22.020413       32.293743
  H           20.573917       21.388665       32.744994
  H           21.390475       22.599548       33.752960
  H           20.372992       23.038446       30.893520
  H           19.566822       23.652134       32.336010
  H           21.212648       27.901921       33.722758
  H           22.929395       28.183587       33.358967
  H           22.500188       26.999361       34.604475
  C            7.938046       12.789991       26.683667
  C            7.225516       13.594732       25.621362
  O            6.578417       12.731042       24.684183
  C            7.357298       12.308217       23.653085
  O            8.521827       12.597938       23.462733
  O            6.601653       11.503970       22.865185
  C            7.296176       10.985552       21.730426
  H            7.238076       12.105528       27.184120
  H            8.383174       13.451262       27.439367
  H            8.727626       12.177196       26.253150
  H            6.436439       14.208810       26.087908
  H            7.909169       14.297313       25.123267
  H            7.635695       11.801642       21.074893
  H            6.603268       10.357778       21.165732
  H            8.140503       10.369115       22.045891
  C           33.194220        7.448392       32.144171
  C           33.749598        6.714073       33.342558
  O           35.175876        6.802918       33.371528
  C           35.829890        5.852019       32.652739
  O           35.320076        4.955408       32.010494
  O           37.160820        6.077073       32.781489
  C           37.977808        5.142932       32.075294
  H           33.532322        8.494614       32.141489
  H           32.095946        7.434393       32.154083
  H           33.536680        7.002038       31.212619
  H           33.381020        7.184914       34.269844
  H           33.405766        5.669956       33.368963
  H           37.816307        4.121459       32.451473
  H           39.023312        5.409672       32.245207
  H           37.779369        5.193605       31.002702
  C           35.094241        9.731705       13.582816
  C           35.282551       11.217272       13.379269
  O           34.451375       11.958103       14.275547
  C           33.187331       12.192383       13.832933
  O           32.718892       11.840431       12.768511
  O           32.536083       12.896452       14.791455
  C           31.185952       13.219298       14.457215
  H           35.287379        9.457789       14.629987
  H           35.777296        9.161234       12.939001
  H           34.073731        9.427517       13.358475
  H           36.325839       11.493897       13.608242
  H           35.109961       11.504522       12.331986
  H           31.147460       13.848593       13.555270
  H           30.756072       13.783665       15.287753
  H           30.597332       12.310260       14.317300
  C           31.020329       36.845091       35.931173
  C           31.515781       38.010252       35.106112
  O           30.437497       38.613628       34.387611
  C           30.158245       38.050426       33.182032
  O           30.734157       37.108191       32.675258
  O           29.119824       38.730953       32.636905
  C           28.717808       38.246263       31.355399
  H           30.215370       37.165709       36.608037
  H           31.835438       36.419395       36.531907
  H           30.609877       36.059203       35.300135
  H           31.930495       38.786467       35.771621
  H           32.333931       37.709140       34.435991
  H           29.539722       38.336228       30.629201
  H           27.883572       38.859167       31.006830
  H           28.378522       37.210734       31.425870
  C           31.577818       15.183295       18.393391
  C           32.922670       14.681484       18.866001
  O           33.971487       15.203321       18.047058
  C           34.244790       14.482327       16.927204
  O           33.692933       13.458443       16.575900
  O           35.251241       15.106860       16.267191
  C           35.648527       14.451989       15.062156
  H           31.561791       16.282450       18.371008
  H           30.776619       14.833980       19.058641
  H           31.360703       14.842311       17.382999
  H           33.111653       15.037682       19.893040
  H           32.948770       13.583112       18.910697
  H           36.022295       13.438878       15.274058
  H           36.459454       15.029747       14.613052
  H           34.818406       14.415269       14.353672
  C            5.486798       12.361625       12.667352
  C            5.358720       12.716075       11.203877
  O            4.692907       13.970930       11.045664
  C            3.335255       13.905764       11.011968
  O            2.659000       12.899910       11.097031
  O            2.863062       15.167890       10.861394
  C            1.438720       15.251289       10.805764
  H            6.003220       13.162992       13.215091
  H            6.052946       11.428858       12.793538
  H            4.510398       12.238251       13.131812
  H            6.362602       12.828584       10.760073
  H            4.859471       11.915804       10.638706
  H            1.048636       14.688502        9.944309
  H            1.164528       16.301340       10.682023
  H            0.996350       14.887046       11.735299
  C           23.629101        6.809000       22.425754
  C           23.168784        8.216115       22.728965
  O           24.265102        9.130689       22.660840
  C           24.982927        9.260477       23.808221
  O           24.774709        8.685794       24.858309
  O           25.977056       10.153079       23.576772
  C           26.816071       10.392505       24.707050
  H           24.126929        6.768101       21.446266
  H           22.777878        6.114863       22.416184
  H           24.350124        6.460792       23.162758
  H           22.435844        8.538472       21.969831
  H           22.652790        8.270065       23.698470
  H           26.234913       10.812171       25.541997
  H           27.576068       11.121674       24.417536
  H           27.319659        9.473103       25.012825
  C           24.909805       18.767873        6.948807
  C           25.307197       19.307690        8.303236
  O           25.670288       18.241939        9.183770
  C           24.637602       17.673308        9.861131
  O           23.466406       17.988353        9.788005
  O           25.146140       16.688394       10.642113
  C           24.165910       16.001070       11.420274
  H           25.717689       18.153800        6.525559
  H           24.690644       19.588310        6.252135
  H           24.030510       18.130525        7.019003
  H           26.195869       19.953324        8.199225
  H           24.515712       19.939004        8.732299
  H           23.662733       16.692754       12.112651
  H           24.675767       15.236000       12.010032
  H           23.438047       15.508287       10.772369
  C           31.377026       24.628256       37.940450
  C           31.908371       24.874634       39.333565
  O           31.581065       26.195261       39.771533
  C           32.465090       27.161829       39.407053
  O           33.483441       27.002570       38.763705
  O           32.011691       28.343430       39.893726
  C           32.851069       29.457120       39.587228
  H           30.292845       24.807346       37.903303
  H           31.572963       23.594009       37.626696
  H           31.834516       25.300799       37.217477
  H           31.431518       24.175585       40.041621
  H           32.989504       24.682467       39.391199
  H           33.851057       29.324237       40.026962
  H           32.400908       30.351833       40.023052
  H           32.921777       29.598531       38.506764
  C           22.379515       19.735588       12.682184
  C           23.833170       20.045216       12.955716
  O           24.154820       19.786018       14.324057
  C           23.912400       20.813818       15.180480
  O           23.463487       21.904721       14.889437
  O           24.265444       20.408457       16.425326
  C           24.066471       21.397799       17.435481
  H           22.146646       18.697731       12.960617
  H           22.145841       19.874426       11.617937
  H           21.721536       20.375937       13.266407
  H           24.474138       19.385693       12.346135
  H           24.086179       21.075263       12.665734
  H           24.678908       22.289551       17.233740
  H           24.381374       20.974713       18.392003
  H           23.010214       21.665082       17.508142
  C           21.734635       30.862217       21.437708
  C           20.565204       30.178120       22.107217
  O           19.761251       31.127691       22.810763
  C           20.161279       31.395750       24.082267
  O           21.113595       30.906901       24.657089
  O           19.303552       32.307530       24.603384
  C           19.602947       32.682886       25.948104
  H           21.383720       31.663915       20.772097
  H           22.318103       30.144392       20.845430
  H           22.395156       31.323691       22.169181
  H           19.918211       29.715784       21.342334
  H           20.899214       29.361425       22.763377
  H           19.545887       31.811628       26.617921
  H           18.857478       33.413063       26.270932
  H           20.588906       33.148635       26.006099
  C           12.271383       13.467984       27.770127
  C           10.949699       14.197543       27.701613
  O           10.299409       13.946202       26.453835
  C           10.657927       14.774483       25.436970
  O           11.457193       15.687582       25.497996
  O            9.959872       14.404516       24.334953
  C           10.235747       15.198034       23.180387
  H           12.127358       12.391128       27.601199
  H           12.743239       13.609315       28.751900
  H           12.958341       13.820241       27.003117
  H           10.278047       13.823785       28.493187
  H           11.074908       15.274270       27.886223
  H            9.966694       16.250332       23.357243
  H            9.625694       14.821951       22.356071
  H           11.287047       15.112139       22.897916
  C           24.509778       33.948500       31.752845
  C           25.502348       34.084338       30.621407
  O           24.825102       34.199407       29.367973
  C           24.507657       33.019801       28.771014
  O           24.748455       31.907790       29.197334
  O           23.874356       33.301911       27.605706
  C           23.482741       32.146292       26.864099
  H           23.805361       34.792713       31.752132
  H           25.025938       33.922775       32.722081
  H           23.917387       33.041073       31.653102
  H           26.090776       35.008385       30.752900
  H           26.225337       33.255856       30.619353
  H           24.362057       31.547988       26.581547
  H           22.987583       32.481101       25.949866
  H           22.775675       31.543529       27.437802
  C           38.965174       24.869552        2.823622
  C           38.362417       23.817208        1.921926
  O           37.041466       24.191048        1.524015
  C           36.053289       23.829226        2.384939
  O           36.192673       23.227589        3.431316
  O           34.875086       24.255954        1.866921
  C           33.739040       23.938431        2.671520
  H           38.956516       25.852037        2.330115
  H           40.002388       24.614501        3.079821
  H           38.397248       24.973020        3.746148
  H           38.961875       23.731226        0.999615
  H           38.379945       22.824701        2.394917
  H           33.632121       22.848802        2.782323
  H           32.848484       24.320955        2.167849
  H           33.814853       24.418802        3.649219
  C           29.772787       12.509660       38.787202
  C           28.279856       12.645790       38.978058
  O           27.724704       13.525924       37.998175
  C           27.752598       14.845793       38.323395
  O           28.191764       15.326890       39.349055
  O           27.196818       15.537429       37.298042
  C           27.155639       16.949459       37.506065
  H           30.002447       12.171556       37.766496
  H           30.191548       11.785807       39.499366
  H           30.278392       13.463175       38.926744
  H           27.796596       11.664055       38.836432
  H           28.032954       12.966574       40.000426
  H           26.546660       17.195818       38.388931
  H           26.691408       17.408416       36.630309
  H           28.165447       17.351534       37.611060
  C           12.112804       38.126827       26.459818
  C           13.392777       38.150789       25.656765
  O           14.505378       37.772605       26.470457
  C           15.081776       38.785861       27.170228
  O           14.744820       39.953182       27.159117
  O           16.109045       38.264228       27.885222
  C           16.814131       39.224485       28.672344
  H           11.960712       37.137473       26.914731
  H           11.248831       38.356318       25.821550
  H           12.142275       38.848883       27.273493
  H           13.330756       37.414231       24.837597
  H           13.550216       39.129320       25.180539
  H           17.266138       39.997017       28.032122
  H           17.616164       38.706067       29.202519
  H           16.149675       39.677587       29.410990
  C           14.482413       34.793982       11.515080
  C           14.243418       33.612101       10.604125
  O           13.194556       33.895620        9.675413
  C           11.937865       33.634676       10.124005
  O           11.639107       33.188656       11.214010
  O           11.068904       33.957101        9.134284
  C            9.699468       33.728674        9.467849
  H           14.699048       35.697354       10.926957
  H           15.329140       34.601599       12.187792
  H           13.604078       35.012077       12.119450
  H           15.151277       33.412082       10.009831
  H           14.042598       32.696146       11.178406
  H            9.521775       32.663033        9.677220
  H            9.088268       34.016080        8.609401
  H            9.404804       34.342648       10.321434
  C           37.167304       10.424445       34.777749
  C           36.684686        9.510818       33.674950
  O           35.757447       10.191335       32.826348
  C           34.462488       10.157871       33.239338
  O           34.037424        9.609869       34.236992
  O           33.720900       10.844097       32.335048
  C           32.327171       10.888406       32.642226
  H           37.605224       11.340696       34.356312
  H           37.926526        9.923513       35.393500
  H           36.347544       10.732775       35.423679
  H           37.537080        9.211069       33.041723
  H           36.259588        8.581260       34.080307
  H           31.899848        9.874493       32.661606
  H           31.824264       11.457578       31.857225
  H           32.160138       11.394414       33.595356
  C           18.643448        2.838510       24.232742
  C           18.361414        4.296367       24.513648
  O           19.539924        4.956824       24.980456
  C           19.755675        4.877609       26.320522
  O           19.049445        4.313934       27.132809
  O           20.902838        5.545931       26.596136
  C           21.254185        5.548488       27.980097
  H           19.472095        2.736282       23.517346
  H           17.755993        2.344121       23.815006
  H           18.938689        2.310819       25.137549
  H           18.059557        4.802392       23.580791
  H           17.522697        4.415676       25.214662
  H           20.475665        6.044692       28.579002
  H           22.184121        6.110162       28.093419
  H           21.421728        4.529625       28.335411
  C           17.865386       32.482747       29.328208
  C           16.697743       31.525204       29.387544
  O           17.144137       30.176013       29.234521
  C           17.259608       29.746614       27.949654
  O           17.017459       30.391770       26.948935
  O           17.691287       28.461550       27.979035
  C           17.855164       27.875271       26.687439
  H           18.619098       32.220098       30.084405
  H           17.532312       33.513900       29.507887
  H           18.360618       32.443786       28.359948
  H           16.213373       31.591480       30.376681
  H           15.926492       31.785538       28.648289
  H           16.897117       27.849545       26.146620
  H           18.200642       26.847846       26.822136
  H           18.607228       28.418853       26.111837
  C           17.828811       20.282414       29.792253
  C           18.816285       19.365585       30.476445
  O           18.186196       18.651839       31.542539
  C           18.161829       19.299346       32.737839
  O           18.621639       20.399397       32.971850
  O           17.534051       18.496143       33.631908
  C           17.438505       19.052096       34.943620
  H           16.957115       19.714619       29.436368
  H           18.294823       20.784849       28.933829
  H           17.454858       21.042313       30.475637
  H           19.181330       18.611379       29.758591
  H           19.702753       19.916325       30.822796
  H           18.439213       19.232049       35.364572
  H           16.922747       18.330840       35.581494
  H           16.856287       19.975764       34.927500
  C            6.349833       35.628109       14.115272
  C            6.398543       35.629365       15.625711
  O            7.739539       35.809277       16.086539
  C            8.471865       34.668996       16.196349
  O            8.092823       33.541545       15.948394
  O            9.707420       35.010547       16.638331
  C           10.590776       33.901178       16.805014
  H            6.792873       36.550830       13.713773
  H            5.313344       35.552685       13.759602
  H            6.918040       34.797325       13.701462
  H            5.810092       36.477523       16.015265
  H            5.942740       34.719991       16.043301
  H           10.196414       33.197968       17.553997
  H           11.549946       34.281585       17.163321
  H           10.755465       33.395078       15.851525
  C           15.135869       19.190659        1.447856
  C           14.994996       19.137108        2.951547
  O           15.240235       20.422395        3.526782
  C           16.544841       20.698633        3.791914
  O           17.492559       19.964958        3.592284
  O           16.604928       21.943455        4.326151
  C           17.926700       22.367862        4.660215
  H           14.468498       19.954977        1.024375
  H           14.886870       18.219545        0.999039
  H           16.149432       19.456808        1.154335
  H           13.960771       18.859751        3.217727
  H           15.643855       18.364498        3.388759
  H           18.369928       21.703219        5.417050
  H           17.864194       23.373707        5.081484
  H           18.554428       22.406723        3.767552
  C           37.388994       33.183682       23.095766
  C           36.247144       32.333347       23.602628
  O           36.685821       31.480237       24.662234
  C           37.218896       30.293534       24.267053
  O           37.345687       29.905040       23.122808
  O           37.583552       29.611307       25.380693
  C           38.160598       28.332671       25.114410
  H           37.835539       33.760751       23.918256
  H           37.040101       33.883806       22.324663
  H           38.181660       32.570290       22.671820
  H           35.458295       32.982016       24.020177
  H           35.778310       31.762919       22.787824
  H           37.441879       27.681234       24.594724
  H           38.414824       27.869045       26.070192
  H           39.076180       28.439214       24.528954
  C           28.306253       38.925955        4.908418
  C           26.897160       38.649751        5.379551
  O           26.593493       39.424203        6.541881
  C           26.957370       38.860531        7.724449
  O           27.498402       37.782890        7.873697
  O           26.604971       39.714670        8.716852
  C           26.926575       39.245949       10.026688
  H           28.448284       40.000583        4.724290
  H           28.520095       38.379412        3.979945
  H           29.038923       38.633051        5.657885
  H           26.178848       38.950903        4.598056
  H           26.734006       37.575982        5.551309
  H           26.395337       38.307561       10.246263
  H           26.601843       40.000438       10.746686
  H           28.005051       39.111029       10.131982
  C           14.696651       23.640479       22.252410
  C           15.838651       24.018761       23.167034
  O           15.740849       25.391175       23.554222
  C           16.310880       26.277211       22.694801
  O           16.884743       26.009216       21.657901
  O           16.130182       27.521731       23.201869
  C           16.686709       28.561984       22.397536
  H           13.730639       23.855535       22.731441
  H           14.735035       22.571204       22.004061
  H           14.725391       24.211162       21.326237
  H           15.786286       23.420844       24.092860
  H           16.812357       23.793096       22.708697
  H           17.776279       28.440480       22.302277
  H           16.489937       29.515843       22.892040
  H           16.214298       28.580428       21.413215
  C           19.159691       33.463374       21.283909
  C           19.644291       34.030997       22.597975
  O           18.575402       34.093188       23.544869
  C           17.817760       35.220800       23.489465
  O           17.970680       36.155983       22.728973
  O           16.856638       35.121849       24.440807
  C           15.981424       36.248471       24.500189
  H           18.698849       32.476744       21.435848
  H           19.992423       33.356573       20.575635
  H           18.402210       34.101079       20.832409
  H           20.413856       33.367258       23.027651
  H           20.124000       35.010773       22.460074
  H           16.540838       37.164247       24.743931
  H           15.252182       36.070626       25.293711
  H           15.442890       36.366205       23.557576
  C            5.890608       29.520197        9.840026
  C            6.995478       30.500326       10.160039
  O            7.419849       30.355855       11.517256
  C            6.704311       31.069689       12.426677
  O            5.765029       31.803293       12.190303
  O            7.227753       30.822260       13.652804
  C            6.570902       31.515473       14.714313
  H            6.213520       28.491039       10.053243
  H            5.606316       29.586683        8.781131
  H            5.007008       29.707533       10.447032
  H            7.873695       30.289433        9.526273
  H            6.693768       31.533544        9.935246
  H            6.650481       32.604396       14.576787
  H            7.066868       31.250929       15.650867
  H            5.524147       31.211773       14.781167
  C            4.288464       17.737143       36.794383
  C            4.156065       19.196282       37.164770
  O            5.344835       19.912744       36.823437
  C            6.321255       19.898335       37.769478
  O            6.269019       19.348572       38.851760
  O            7.370436       20.613403       37.293561
  C            8.477483       20.686778       38.192372
  H            4.530419       17.629959       35.727205
  H            3.353623       17.197712       36.998312
  H            5.091638       17.258549       37.351301
  H            3.331957       19.651821       36.589679
  H            3.896594       19.319585       38.226171
  H            8.186126       21.183902       39.129911
  H            9.261281       21.281556       37.718031
  H            8.875491       19.689959       38.393223
  C           33.384956       29.262206       35.753269
  C           34.138388       28.135127       36.420976
  O           35.322883       27.816498       35.687187
  C           35.154147       26.925837       34.673850
  O           34.113060       26.388772       34.351362
  O           36.359953       26.736020       34.083424
  C           36.333426       25.812842       32.994462
  H           34.032998       30.142311       35.633445
  H           32.508100       29.550346       36.348750
  H           33.048217       28.978461       34.758083
  H           34.461112       28.449898       37.428036
  H           33.497948       27.252809       36.563980
  H           36.014993       24.816334       33.335889
  H           37.346353       25.730695       32.594050
  H           35.677417       26.175011       32.200179
  C           21.328641       15.772494       26.195623
  C           20.568012       16.994925       26.654870
  O           21.165356       17.548309       27.829582
  C           20.742688       17.007995       29.003469
  O           19.919954       16.123737       29.135748
  O           21.400783       17.635231       30.009494
  C           21.049873       17.167514       31.312147
  H           22.388256       16.015903       26.031709
  H           20.908947       15.382592       25.258429
  H           21.296725       14.982276       26.943177
  H           20.613276       17.774639       25.875513
  H           19.502040       16.771627       26.806330
  H           19.980983       17.336313       31.512097
  H           21.629410       17.734456       32.044140
  H           21.298978       16.109839       31.420173
  C           32.413413       17.851288       39.348628
  C           33.176478       17.735128       38.049383
  O           34.514444       17.292808       38.288548
  C           35.408011       18.277797       38.571276
  O           35.174100       19.468603       38.630993
  O           36.616343       17.696366       38.772451
  C           37.660990       18.620728       39.077520
  H           32.430179       16.896226       39.893124
  H           31.367662       18.130627       39.161886
  H           32.858321       18.597711       40.003769
  H           32.699368       16.976868       37.405327
  H           33.153954       18.678164       37.484339
  H           37.811117       19.327222       38.247262
  H           38.584819       18.055075       39.217792
  H           37.441196       19.156417       40.003332
  C           20.192137       20.339170       26.904099
  C           21.553087       20.392818       26.249317
  O           22.569657       19.979728       27.165255
  C           23.062646       20.962679       27.964861
  O           22.726236       22.130209       27.963637
  O           24.005675       20.410425       28.767551
  C           24.617016       21.336620       29.666008
  H           19.992955       19.332581       27.299072
  H           19.403597       20.596076       26.183888
  H           20.129642       21.027721       27.744510
  H           21.583875       19.690067       25.399262
  H           21.759968       21.389441       25.833334
  H           25.135296       22.133409       29.111470
  H           25.356647       20.795517       30.260360
  H           23.873803       21.760939       30.344231
  C            2.585451       19.253475        8.573910
  C            2.325097       20.074387        9.815731
  O            3.341542       19.844617       10.794018
  C            3.126743       18.780977       11.613243
  O            2.169109       18.033550       11.588962
  O            4.173077       18.700896       12.471948
  C            4.078637       17.621537       13.401929
  H            3.586290       19.467565        8.172180
  H            1.840703       19.475496        7.797664
  H            2.551720       18.187367        8.789721
  H            2.359826       21.148254        9.564722
  H            1.320254       19.884349       10.219806
  H            3.186811       17.731270       14.037229
  H            4.962167       17.647787       14.043634
  H            4.061961       16.663711       12.877820
  C           21.856543       35.609546        4.382287
  C           21.720405       37.080813        4.065046
  O           22.510130       37.864937        4.961976
  C           21.900646       38.196659        6.131201
  O           20.772139       37.896560        6.466930
  O           22.776285       38.930172        6.861827
  C           22.264289       39.354662        8.125341
  H           22.912932       35.305563        4.359101
  H           21.300344       35.001895        3.655718
  H           21.483208       35.383221        5.379131
  H           22.100803       37.277937        3.048267
  H           20.667142       37.396617        4.067006
  H           21.382656       39.999586        7.991939
  H           23.040695       39.934997        8.628834
  H           22.019348       38.492700        8.749382
  C           36.697061       33.064162       31.870938
  C           38.017486       32.398100       32.181808
  O           38.818528       32.292383       31.002759
  C           38.590616       31.186578       30.245229
  O           37.790679       30.302952       30.481039
  O           39.420731       31.239135       29.174366
  C           39.292007       30.128783       28.285913
  H           36.860273       34.047030       31.405930
  H           36.106237       33.202704       32.786488
  H           36.111683       32.474203       31.168386
  H           38.584590       33.015283       32.899358
  H           37.870982       31.420728       32.663865
  H           39.537621       29.187454       28.800279
  H           40.000076       30.266241       27.465643
  H           38.284222       30.086815       27.867574
  C           29.081372       22.111960        7.442928
  C           30.214061       21.113856        7.375067
  O           29.747089       19.799617        7.687660
  C           29.730822       19.490661        9.011624
  O           30.074659       20.213882        9.925423
  O           29.264572       18.223494        9.136111
  C           29.196545       17.760616       10.485154
  H           28.259027       21.808670        6.779103
  H           29.424835       23.111081        7.142445
  H           28.670025       22.176322        8.448388
  H           30.613521       21.075192        6.347285
  H           31.052364       21.412736        8.020838
  H           30.196376       17.750706       10.944761
  H           28.813904       16.737596       10.474359
  H           28.511090       18.378572       11.068834
  C           23.102603        8.987000        9.691790
  C           21.621941        8.709143        9.811109
  O           21.185611        8.873524       11.162255
  C           21.320266        7.774881       11.951844
  O           21.762272        6.694340       11.615153
  O           20.868007        8.095521       13.189282
  C           20.946630        7.024909       14.130775
  H           23.338938        9.991403       10.071553
  H           23.427338        8.922268        8.644481
  H           23.686591        8.280581       10.278502
  H           21.057724        9.436013        9.202241
  H           21.366822        7.714127        9.418735
  H           20.329682        6.173684       13.805519
  H           20.558877        7.384048       15.086686
  H           21.983947        6.715422       14.274272
  C            5.733657       32.572062       28.660293
  C            5.364930       33.673888       27.693950
  O            6.493479       34.046245       26.899766
  C            7.306337       34.985203       27.453136
  O            7.156655       35.523459       28.532106
  O            8.319007       35.221883       26.583032
  C            9.256246       36.199179       27.036105
  H            6.148816       31.708410       28.121174
  H            4.853135       32.241545       29.227691
  H            6.494587       32.901680       29.365019
  H            4.589160       33.312483       26.997554
  H            4.931487       34.538669       28.216808
  H            8.764081       37.172330       27.183587
  H           10.023551       36.315905       26.267523
  H            9.739566       35.869032       27.957954
  C           30.135801        7.989178       23.958192
  C           30.558254        6.695942       24.616124
  O           31.803893        6.860586       25.297500
  C           32.911760        6.677713       24.530826
  O           32.932784        6.389184       23.350738
  O           33.998076        6.870512       25.319082
  C           35.243498        6.705267       24.640542
  H           30.085336        8.800622       24.698403
  H           29.149343        7.881819       23.487157
  H           30.849851        8.298013       23.197237
  H           29.813538        6.406072       25.376896
  H           30.596373        5.869958       23.891281
  H           35.342607        5.680581       24.251702
  H           36.047519        6.878594       25.359297
  H           35.340296        7.434029       23.833116
  C           28.808342       32.476198       18.540085
  C           28.478878       31.967855       19.924585
  O           29.592208       31.265718       20.481809
  C           29.665070       29.946867       20.159437
  O           28.883831       29.330427       19.462324
  O           30.767488       29.433580       20.759280
  C           30.969415       28.042491       20.508488
  H           29.709723       33.105358       18.563994
  H           27.976982       33.069128       18.135396
  H           29.012471       31.655547       17.855131
  H           28.271443       32.820560       20.593364
  H           27.568794       31.350743       19.920146
  H           30.125102       27.450525       20.892819
  H           31.874541       27.730435       21.034291
  H           31.111542       27.861635       19.441018
  C           20.590219       27.904398        7.134555
  C           19.602641       26.762114        7.073926
  O           19.657221       26.115795        5.800233
  C           18.873985       26.668941        4.836298
  O           18.148117       27.635048        4.962991
  O           19.041481       25.946901        3.700867
  C           18.268906       26.416644        2.595757
  H           21.605626       27.549608        6.906579
  H           20.594275       28.362487        8.132873
  H           20.351304       28.673657        6.402804
  H           19.866853       26.002639        7.829432
  H           18.584226       27.097949        7.317122
  H           17.193124       26.361987        2.820936
  H           18.473282       25.770299        1.739270
  H           18.555507       27.437118        2.333285
  C           21.841771       38.222800       27.730912
  C           21.686911       36.720132       27.773430
  O           22.936780       36.092855       28.068984
  C           23.730243       35.847461       26.992509
  O           23.472607       36.103672       25.833078
  O           24.866465       35.258435       27.440447
  C           25.799237       34.937840       26.407996
  H           22.265071       38.594337       28.675199
  H           20.870927       38.709354       27.565904
  H           22.520446       38.528621       26.937077
  H           20.990200       36.441620       28.582396
  H           21.247846       36.334807       26.841848
  H           25.361081       34.223333       25.694905
  H           26.670706       34.469560       26.870981
  H           26.127592       35.842929       25.892827
  C           20.084818       12.156966        1.715205
  C           20.777848       12.218906        3.056724
  O           20.160898       11.323576        3.984494
  C           19.096489       11.832793        4.660017
  O           18.641199       12.953859        4.549465
  O           18.629982       10.866026        5.488470
  C           17.504149       11.266051        6.270314
  H           20.074248       11.126030        1.333161
  H           20.595795       12.797296        0.983509
  H           19.047718       12.478086        1.790084
  H           21.826637       11.893929        2.947956
  H           20.812153       13.247360        3.444287
  H           17.764740       12.111335        6.924980
  H           17.210655       10.422773        6.899476
  H           16.661517       11.524455        5.625645
  C           37.511668       39.297143        8.634704
  C           37.898512       37.986699        7.989035
  O           36.783392       37.093202        7.954806
  C           36.611414       36.338870        9.072843
  O           37.308068       36.355073       10.068188
  O           35.521170       35.555783        8.881162
  C           35.220913       34.699904        9.983939
  H           36.652831       39.745279        8.114634
  H           38.349192       40.007222        8.605699
  H           37.215348       39.155139        9.672167
  H           38.198998       38.163259        6.942166
  H           38.767990       37.534282        8.487462
  H           36.051358       34.003362       10.174178
  H           34.334449       34.115075        9.728484
  H           34.999943       35.287970       10.877108
  C           32.555597       20.679220        4.212545
  C           33.708419       20.333284        3.298692
  O           33.860852       18.915952        3.194118
  C           34.627993       18.343374        4.159649
  O           35.183681       18.917985        5.074708
  O           34.669272       17.009439        3.919834
  C           35.450575       16.274761        4.862497
  H           31.629476       20.199530        3.864556
  H           32.397454       21.765701        4.244975
  H           32.734140       20.326025        5.226289
  H           33.501472       20.708482        2.281933
  H           34.639136       20.820309        3.623767
  H           36.499244       16.607818        4.843362
  H           35.420501       15.220077        4.579940
  H           35.033740       16.374265        5.866862
  C           24.100746       30.546338       37.745980
  C           23.997674       30.158255       39.202883
  O           24.406031       28.801780       39.393194
  C           23.429686       27.872677       39.213976
  O           22.271297       28.091127       38.919501
  O           23.976366       26.650209       39.426845
  C           23.056041       25.569104       39.275140
  H           25.120894       30.377070       37.372420
  H           23.847249       31.606000       37.606855
  H           23.433585       29.947930       37.128644
  H           24.679604       30.784630       39.802905
  H           22.986807       30.338483       39.596286
  H           22.233835       25.652218       40.001824
  H           23.591896       24.637168       39.468676
  H           22.666384       25.536994       38.255564
  C           29.719246       37.935609       18.851113
  C           30.285484       39.026646       17.972016
  O           31.595677       38.679263       17.518452
  C           32.608235       39.016045       18.361010
  O           32.498055       39.576021       19.433664
  O           33.772297       38.619227       17.789963
  C           34.931161       38.915125       18.569886
  H           29.719096       36.972836       18.320107
  H           28.688958       38.172069       19.149599
  H           30.317029       37.801620       19.750559
  H           29.656317       39.142894       17.073108
  H           30.276044       40.000147       18.483199
  H           35.033862       40.000563       18.719138
  H           35.807877       38.559545       18.023962
  H           34.889971       38.397077       19.530266
  C           16.177923       28.315238       13.439803
  C           14.795176       28.781728       13.047123
  O           13.992086       27.677654       12.623959
  C           14.108772       27.346742       11.310383
  O           14.813344       27.897175       10.487643
  O           13.292511       26.289942       11.074813
  C           13.310570       25.833615        9.721950
  H           16.117764       27.540120       14.217281
  H           16.776268       29.152338       13.824183
  H           16.702684       27.875760       12.593762
  H           14.291317       29.226832       13.921999
  H           14.839211       29.570391       12.282157
  H           12.968097       26.625501        9.038848
  H           12.623420       24.988572        9.639316
  H           14.310405       25.492844        9.445173
  C            3.750364       20.349840       17.736170
  C            2.647377       20.933920       16.884072
  O            2.839848       22.338756       16.704097
  C            2.318188       23.124705       17.683258
  O            1.714809       22.745924       18.667513
  O            2.586517       24.415439       17.366074
  C            2.089143       25.360784       18.313566
  H            4.734428       20.568127       17.297002
  H            3.638819       19.260628       17.823772
  H            3.747269       20.778651       18.736376
  H            2.672255       20.476607       15.880257
  H            1.655205       20.708722       17.301183
  H            0.992825       25.299537       18.386621
  H            2.354300       26.361755       17.965932
  H            2.549145       25.202626       19.291208
  C           36.341825       27.558939       28.401744
  C           35.708598       28.095000       29.664860
  O           34.959098       27.073031       30.325792
  C           33.675365       26.930232       29.901250
  O           33.124858       27.582248       29.036312
  O           33.110012       25.928626       30.619414
  C           31.747871       25.668592       30.279184
  H           36.966736       26.682265       28.624971
  H           36.968789       28.324917       27.925620
  H           35.587491       27.236870       27.686516
  H           36.496330       28.418266       30.366556
  H           35.093895       28.983522       29.460485
  H           31.122644       26.553903       30.469751
  H           31.389556       24.853151       30.911454
  H           31.665638       25.357080       29.235825
  C           26.071917       25.446327       12.523463
  C           26.417209       24.684044       13.781834
  O           27.523809       23.808741       13.553181
  C           27.200734       22.584015       13.058945
  O           26.082963       22.179611       12.807260
  O           28.351381       21.884854       12.898365
  C           28.161687       20.566141       12.384738
  H           26.948957       25.995264       12.151483
  H           25.262846       26.164533       12.713425
  H           25.757162       24.774484       11.727313
  H           26.726248       25.390753       14.570794
  H           25.544791       24.143390       14.176398
  H           27.547655       19.964726       13.071953
  H           29.141659       20.091898       12.296144
  H           27.705693       20.602375       11.393196
  C           19.923621       22.058938        8.954085
  C           19.775515       23.204111        7.979178
  O           21.057137       23.696011        7.581083
  C           21.595788       24.637909        8.400401
  O           21.092632       25.088331        9.410477
  O           22.799880       24.993508        7.888238
  C           23.483773       25.987843        8.651384
  H           20.544155       21.261085        8.521341
  H           18.942186       21.639049        9.212890
  H           20.414158       22.380277        9.870826
  H           19.270789       22.849677        7.064285
  H           19.142308       24.003207        8.390996
  H           22.897722       26.918307        8.693582
  H           24.433266       26.202741        8.156024
  H           23.695666       25.620835        9.657767
  C           29.731042        7.215410       35.841363
  C           30.936218        7.343452       34.938614
  O           31.519156        6.062012       34.691441
  C           32.423651        5.648862       35.618693
  O           32.772824        6.260894       36.608538
  O           32.875390        4.427176       35.241842
  C           33.843466        3.867675       36.129866
  H           28.999066        6.516528       35.411624
  H           29.245005        8.190355       35.981903
  H           30.007862        6.823752       36.818232
  H           30.625594        7.747533       33.960028
  H           31.670345        8.053222       35.346516
  H           34.738038        4.506292       36.183798
  H           34.141182        2.892827       35.737264
  H           33.414219        3.722378       37.123363
  C            7.890875       24.359647       21.075647
  C            8.909251       24.891652       22.057319
  O            8.348041       25.944104       22.844968
  C            8.427245       27.184709       22.294308
  O            8.925023       27.467864       21.222702
  O            7.853517       28.059000       23.157471
  C            7.868803       29.413645       22.706358
  H            6.983682       24.028831       21.601443
  H            8.300132       23.509745       20.512908
  H            7.584902       25.127244       20.367498
  H            9.203837       24.090927       22.756932
  H            9.830111       25.210516       21.547964
  H            8.901931       29.768815       22.574068
  H            7.388904       30.031053       23.468988
  H            7.305303       29.514887       21.776510
  C           24.939496        8.753182       29.170434
  C           24.571065        9.770858       30.225135
  O           23.606993        9.230698       31.131662
  C           22.310543        9.360612       30.743150
  O           21.912514        9.886524       29.722714
  O           21.532162        8.800715       31.701919
  C           20.132926        8.868742       31.425678
  H           25.301846        7.826321       29.637908
  H           25.725708        9.144162       28.510505
  H           24.078739        8.485399       28.560770
  H           25.463195       10.026322       30.821994
  H           24.223111       10.710689       29.772646
  H           19.800302        9.915224       31.353309
  H           19.599877        8.395929       32.253571
  H           19.895950        8.325589       30.508494
  C           16.017749       24.043496        7.088572
  C           15.939214       22.563229        7.382580
  O           14.581565       22.158384        7.572024
  C           14.106528       22.299872        8.838089
  O           14.721719       22.723971        9.796202
  O           12.817877       21.878095        8.847109
  C           12.187568       21.967185       10.125223
  H           15.396790       24.297763        6.217563
  H           17.053562       24.344431        6.881134
  H           15.647830       24.633476        7.924864
  H           16.325707       21.992721        6.520870
  H           16.569476       22.289995        8.241191
  H           12.707214       21.335086       10.861034
  H           11.162349       21.604058       10.024407
  H           12.153728       23.004398       10.464993
  C            2.221520       12.586371       28.763567
  C            2.704436       13.566522       27.719585
  O            1.905120       13.478721       26.537898
  C            2.298275       12.534745       25.641829
  O            3.247305       11.784391       25.754132
  O            1.443119       12.579207       24.590481
  C            1.740395       11.635526       23.560970
  H            1.157103       12.750782       28.984666
  H            2.794400       12.695798       29.694337
  H            2.318542       11.559243       28.417309
  H            2.599355       14.596562       28.100866
  H            3.772754       13.426230       27.500233
  H            2.737361       11.824399       23.135076
  H            1.000000       11.754744       22.766802
  H            1.672973       10.615304       23.944377
  C           12.588450       24.860465       13.153197
  C           14.048273       25.027927       13.506286
  O           14.651948       23.759263       13.769096
  C           14.530709       23.314267       15.048112
  O           13.973525       23.889088       15.962128
  O           15.148269       22.109791       15.128474
  C           15.102513       21.520315       16.428176
  H           12.473360       24.175777       12.300638
  H           12.138497       25.827351       12.890189
  H           12.027256       24.432562       13.981605
  H           14.588784       25.468175       12.651050
  H           14.181169       25.724343       14.346788
  H           15.612248       22.159897       17.164454
  H           15.625811       20.562492       16.385343
  H           14.069390       21.335170       16.729468
  C            6.902287       27.847471        1.783944
  C            6.669159       27.243370        3.149416
  O            7.174002       28.103024        4.173685
  C            8.490202       27.937543        4.471734
  O            9.251004       27.140255        3.960059
  O            8.808142       28.820884        5.450112
  C           10.171611       28.756092        5.869104
  H            6.455589       28.850344        1.723890
  H            6.459781       27.218512        0.999662
  H            7.964707       27.960608        1.577149
  H            5.585596       27.135851        3.327551
  H            7.095189       26.232096        3.219581
  H           10.405242       27.763911        6.283824
  H           10.321258       29.500081        6.654716
  H           10.839971       28.992896        5.038671
  C            7.269482        7.596833       21.745586
  C            5.802054        7.796675       22.046447
  O            5.585167        9.058512       22.681842
  C            5.725935        9.057537       24.034167
  O            6.007079        8.101610       24.729482
  O            5.491996       10.317811       24.476414
  C            5.602439       10.465277       25.892343
  H            7.655077        8.426169       21.135325
  H            7.430421        6.656271       21.201580
  H            7.861225        7.573076       22.658590
  H            5.228539        7.810518       21.103956
  H            5.397041        6.965689       22.641867
  H            4.864933        9.832589       26.408861
  H            5.394761       11.508065       26.142469
  H            6.614554       10.226214       26.225320
  C           10.214783       25.214357       25.436995
  C           11.023764       24.106881       24.802294
  O           10.329714       22.860611       24.892322
  C           10.531782       22.167316       26.044325
  O           11.236199       22.504559       26.975111
  O            9.808301       21.022792       25.971929
  C            9.929294       20.186578       27.122975
  H            9.217205       25.275349       24.978718
  H           10.717607       26.183097       25.313659
  H           10.065070       25.036077       26.500057
  H           11.163621       24.318113       23.728412
  H           12.031321       24.044577       25.238239
  H           10.972271       19.864768       27.263112
  H            9.314683       19.297842       26.963285
  H            9.563344       20.703074       28.012757
  C           15.968353        2.991685        7.323338
  C           14.586715        2.579849        6.870276
  O           14.470735        2.682797        5.449378
  C           14.112503        3.909471        4.985116
  O           13.883782        4.896215        5.656177
  O           14.050025        3.838974        3.632442
  C           13.677810        5.066123        3.004460
  H           16.736612        2.393543        6.812549
  H           16.079385        2.853883        8.407397
  H           16.168500        4.034649        7.085712
  H           14.411152        1.521861        7.129580
  H           13.805876        3.157502        7.385745
  H           12.673910        5.380503        3.327492
  H           13.654917        4.901911        1.924825
  H           14.412319        5.845184        3.218841
  C            1.708650       31.292298       12.494751
  C            3.018785       30.544033       12.408463
  O            2.799294       29.187089       12.016639
  C            2.527988       28.327281       13.034344
  O            2.463337       28.604968       14.215449
  O            2.344825       27.095172       12.498658
  C            2.053414       26.081806       13.461449
  H            1.165739       31.231825       11.540555
  H            1.880105       32.350383       12.734670
  H            1.058903       30.866489       13.256863
  H            3.657006       31.001416       11.633301
  H            3.582176       30.610101       13.350442
  H            2.884770       25.970246       14.173770
  H            1.927075       25.135433       12.930867
  H            1.123842       26.308362       13.987728
  C           21.404592       22.495220        3.028134
  C           21.717122       22.147276        1.591103
  O           22.128381       20.782824        1.480934
  C           23.454079       20.559530        1.684071
  O           24.296073       21.397687        1.938705
  O           23.676182       19.228850        1.547829
  C           25.039466       18.846643        1.732693
  H           20.645049       21.811983        3.434561
  H           21.028818       23.524390        3.106258
  H           22.286204       22.400863        3.659131
  H           20.807599       22.257710        0.976309
  H           22.463037       22.833383        1.164525
  H           25.684638       19.328983        0.982958
  H           25.109807       17.764663        1.600512
  H           25.373432       19.092648        2.742815
  C           37.618195       34.087300       18.783724
  C           37.079909       34.482806       17.428135
  O           35.701677       34.850094       17.520750
  C           34.820077       33.819685       17.422579
  O           35.095733       32.647282       17.262004
  O           33.569410       34.332097       17.531520
  C           32.532470       33.354611       17.441647
  H           37.465714       34.897471       19.511235
  H           38.692300       33.864904       18.725938
  H           37.104655       33.210461       19.173250
  H           37.622743       35.368986       17.057439
  H           37.240956       33.688968       16.684505
  H           32.557112       32.848883       16.464595
  H           31.572918       33.867474       17.538250
  H           32.618122       32.628552       18.252759
  C            9.965415       37.562145        9.916908
  C           10.311118       38.298614       11.190448
  O           11.365144       37.631396       11.888192
  C           10.966333       36.638887       12.727523
  O            9.822553       36.284336       12.933345
  O           12.075210       36.111880       13.303070
  C           11.804269       35.051545       14.220174
  H           10.856764       37.446134        9.283710
  H            9.199384       38.106669        9.348409
  H            9.593093       36.561346       10.126850
  H           10.679247       39.309663       10.946192
  H            9.425495       38.438194       11.827071
  H           11.182623       35.407861       15.055396
  H           12.756194       34.701898       14.625988
  H           11.320161       34.216615       13.709359
  C           18.656566        1.975231       17.262074
  C           19.534427        2.412535       18.411824
  O           18.790018        2.441274       19.631672
  C           18.121928        3.600167       19.875031
  O           18.108376        4.587391       19.166861
  O           17.471509        3.463600       21.056939
  C           16.724105        4.616984       21.444100
  H           18.197249        0.999491       17.476217
  H           19.241272        1.892327       16.335929
  H           17.843291        2.678768       17.094980
  H           20.351300        1.684363       18.552838
  H           20.015381        3.379515       18.205106
  H           17.387131        5.485624       21.573951
  H           16.244730        4.405154       22.402446
  H           15.945387        4.833917       20.709976
  C            4.937245       26.243345       21.234982
  C            4.847749       27.744426       21.084827
  O            3.760429       28.101303       20.228454
  C            4.051201       28.119096       18.900397
  O            5.127249       27.869865       18.394131
  O            2.923929       28.470312       18.233686
  C            3.084501       28.533561       16.816289
  H            3.984939       25.834442       21.602150
  H            5.732458       25.969858       21.941623
  H            5.142499       25.761512       20.281038
  H            4.645267       28.204216       22.067169
  H            5.798974       28.170769       20.734824
  H            3.834201       29.291122       16.542333
  H            2.127001       28.824679       16.378631
  H            3.362374       27.555726       16.417510
  C            8.355427       33.122895        4.414144
  C            6.845226       33.074482        4.386777
  O            6.293902       34.348231        4.728253
  C            6.130164       34.570091        6.059631
  O            6.399793       33.797906        6.958147
  O            5.605436       35.811094        6.211844
  C            5.374680       36.180250        7.571725
  H            8.728623       33.914395        3.748446
  H            8.781259       32.163143        4.091587
  H            8.726393       33.346998        5.412374
  H            6.499909       32.840050        3.365406
  H            6.456901       32.275456        5.034743
  H            4.652217       35.497456        8.043785
  H            4.952560       37.187614        7.583285
  H            6.312880       36.193528        8.130299
  C           30.194277       17.689929        2.026591
  C           28.857695       17.301248        2.615042
  O           27.951464       18.406039        2.580646
  C           28.025311       19.248762        3.645055
  O           28.770945       19.142961        4.598541
  O           27.112014       20.233498        3.458552
  C           27.075625       21.197509        4.511243
  H           30.068870       18.075797        1.004691
  H           30.871423       16.825657        1.994871
  H           30.668357       18.478680        2.607470
  H           28.405202       16.497573        2.009438
  H           28.968422       16.896559        3.631440
  H           26.802559       20.722454        5.465579
  H           26.311957       21.939116        4.266436
  H           28.036864       21.708428        4.597162
  C            2.170278       18.461413       31.163278
  C            2.115652       19.808358       31.846327
  O            3.091670       20.693945       31.293041
  C            4.329800       20.610943       31.848689
  O            4.666500       19.873025       32.753349
  O            5.129168       21.504899       31.215875
  C            6.470926       21.529816       31.703590
  H            2.041906       18.573676       30.077084
  H            1.380082       17.800064       31.543683
  H            3.131689       17.976384       31.320553
  H            1.129290       20.271933       31.674316
  H            2.224991       19.711086       32.936135
  H            6.494388       21.817190       32.765600
  H            7.025737       22.278287       31.133437
  H            6.950656       20.559889       31.556959
  C           28.866512       15.644198       27.441649
  C           29.209944       14.972345       28.751026
  O           29.425594       13.572630       28.557909
  C           28.306595       12.802014       28.608817
  O           27.171856       13.189913       28.804266
  O           28.680197       11.514381       28.406273
  C           27.596976       10.584616       28.437392
  H           29.650939       15.457305       26.694223
  H           28.761830       16.729207       27.576918
  H           27.936924       15.256493       27.029521
  H           30.151867       15.389427       29.146276
  H           28.442780       15.164844       29.514900
  H           27.102940       10.594456       29.420668
  H           28.002556        9.584769       28.267357
  H           26.879406       10.804678       27.644256
  C           20.819066       12.441617       27.900945
  C           19.420257       11.949611       28.192603
  O           18.462195       12.982548       27.951445
  C           18.241516       13.823103       28.997087
  O           18.770166       13.769459       30.089768
  O           17.318355       14.736559       28.607249
  C           16.983744       15.689738       29.616350
  H           20.887954       12.821960       26.871628
  H           21.550221       11.631434       28.025513
  H           21.096239       13.261173       28.561099
  H           19.170548       11.116937       27.513119
  H           19.339676       11.549414       29.213607
  H           16.548142       15.190543       30.495017
  H           16.237115       16.372424       29.204544
  H           17.862708       16.271744       29.901114
  C           26.888085       20.042098       16.495257
  C           27.996396       20.582089       15.621269
  O           28.649981       19.520177       14.922577
  C           29.660788       18.915947       15.602117
  O           30.048494       19.197141       16.718770
  O           30.168190       17.939919       14.809328
  C           31.249702       17.217754       15.398911
  H           26.175791       19.455482       15.897411
  H           26.344414       20.861503       16.984641
  H           27.278154       19.378705       17.264708
  H           27.571665       21.254319       14.856343
  H           28.708093       21.186371       16.202156
  H           32.095065       17.888642       15.614016
  H           31.584193       16.463091       14.683579
  H           30.921386       16.709242       16.307770
  C           14.150295       19.516869        6.024230
  C           13.357029       20.659567        5.433662
  O           12.299593       21.046901        6.313889
  C           11.142986       20.346207        6.172863
  O           10.935641       19.448024        5.381299
  O           10.252273       20.830477        7.073260
  C            8.979663       20.184094        7.035158
  H           14.533203       19.786058        7.019126
  H           15.000779       19.259225        5.378632
  H           13.532483       18.630065        6.151462
  H           14.010066       21.540466        5.311355
  H           12.981785       20.411995        4.430167
  H            8.503704       20.318022        6.052037
  H            8.341088       20.646438        7.791174
  H            9.080936       19.122948        7.272038
  C            8.047676       28.214115       13.910060
  C            8.966076       27.041565       13.654191
  O            8.441359       26.206884       12.619309
  C            7.561093       25.256604       13.032469
  O            7.196848       25.058448       14.174554
  O            7.160173       24.559826       11.940515
  C            6.228277       23.516928       12.228151
  H            7.877620       28.780935       12.983401
  H            8.479488       28.889833       14.660690
  H            7.072759       27.883787       14.263216
  H            9.946217       27.407468       13.303707
  H            9.160143       26.474395       14.576013
  H            6.674101       22.771089       12.903404
  H            5.973545       23.020508       11.289120
  H            5.313299       23.928066       12.659636
  C           29.889394        8.029048       20.382480
  C           31.370447        8.125030       20.667205
  O           32.122680        8.051175       19.454072
  C           32.420256        6.793080       19.033065
  O           32.114669        5.755802       19.587115
  O           33.126740        6.897679       17.880442
  C           33.513662        5.641998       17.321554
  H           29.581725        8.808095       19.670213
  H           29.307201        8.148229       21.306249
  H           29.633578        7.070837       19.934496
  H           31.597670        9.102747       21.125288
  H           31.690583        7.362796       21.392197
  H           34.166250        5.090972       18.015455
  H           34.074586        5.836663       16.404728
  H           32.633648        5.047593       17.067273
  C           33.544202        6.287602       28.595737
  C           34.207329        5.260165       27.707799
  O           33.233158        4.567329       26.924237
  C           32.667630        3.487327       27.526213
  O           32.916466        3.069510       28.639681
  O           31.773532        2.950387       26.659678
  C           31.100331        1.795878       27.162380
  H           32.940592        6.984185       27.996297
  H           34.295720        6.863691       29.152372
  H           32.870674        5.818034       29.309995
  H           34.886945        5.764680       26.999994
  H           34.829387        4.566168       28.291333
  H           31.817583        0.989929       27.379166
  H           30.410288        1.443011       26.392689
  H           30.522417        2.046577       28.054325
  C            9.214935       30.519744       17.933830
  C            9.909978       30.601622       16.594423
  O           10.128723       29.294368       16.059411
  C           11.274270       28.686122       16.467280
  O           12.106934       29.147950       17.222055
  O           11.328928       27.466423       15.877409
  C           12.492003       26.710363       16.215680
  H            8.273826       29.957908       17.846916
  H            8.990049       31.524141       18.317382
  H            9.828247       29.999625       18.667059
  H            9.267766       31.138072       15.875268
  H           10.845097       31.176234       16.661315
  H           13.404576       27.233007       15.891560
  H           12.439856       25.753842       15.690849
  H           12.522611       26.512954       17.289223
  C           30.109883       37.810431       24.171891
  C           28.661694       38.147265       23.901538
  O           27.965555       37.007178       23.393018
  C           28.039281       36.837123       22.046079
  O           28.625250       37.554173       21.259453
  O           27.336076       35.721757       21.729754
  C           27.323917       35.420354       20.334115
  H           30.185803       36.953976       24.857179
  H           30.631083       38.666676       24.620995
  H           30.629018       37.531548       23.257001
  H           28.164394       38.431084       24.844692
  H           28.569000       39.013792       23.230987
  H           26.852554       36.234755       19.763529
  H           26.733875       34.512874       20.187724
  H           28.337438       35.234198       19.972836
  C           35.229932       38.217328       30.540306
  C           35.071730       37.000782       29.657817
  O           36.097856       36.043756       29.930150
  C           37.257049       36.226604       29.243536
  O           37.486788       37.105915       28.437104
  O           38.117866       35.246874       29.614648
  C           39.386979       35.312896       28.963656
  H           35.238042       37.926851       31.600711
  H           34.406943       38.926160       30.376759
  H           36.170205       38.729017       30.344445
  H           34.108849       36.507638       29.874774
  H           35.044085       37.276921       28.593823
  H           39.272543       35.204410       27.874557
  H           39.999247       34.485092       29.328305
  H           39.894217       36.249130       29.205677
  C           30.384738       27.208466       35.817296
  C           29.840211       27.297702       37.224182
  O           28.733236       26.409465       37.393410
  C           27.523757       26.916948       37.035329
  O           27.308913       28.031238       36.601163
  O           26.590604       25.957463       37.252614
  C           25.260394       26.356669       36.920989
  H           30.659806       26.171961       35.574615
  H           31.273703       27.843480       35.703284
  H           29.642290       27.519337       35.084881
  H           30.615765       26.982604       37.942951
  H           29.576738       28.332065       37.488332
  H           24.946305       27.214292       37.534855
  H           24.591609       25.519602       37.133463
  H           25.185292       26.596356       35.858299
  C           21.173411       10.945166       39.086476
  C           22.357608       10.479235       38.271377
  O           22.185247        9.120235       37.863441
  C           22.605188        8.188802       38.760481
  O           23.105222        8.406846       39.846172
  O           22.371235        6.964287       38.227164
  C           22.770329        5.880380       39.066610
  H           20.239187       10.809686       38.522765
  H           21.274836       12.007180       39.347894
  H           21.075123       10.371278       40.005873
  H           22.434575       11.082163       37.350533
  H           23.302134       10.624735       38.815252
  H           23.853514        5.913838       39.257894
  H           22.542453        4.946840       38.547307
  H           22.213285        5.896964       40.005667
  C           11.697608       28.340104       20.509406
  C           12.722975       27.491398       19.793780
  O           12.170087       26.220385       19.444721
  C           12.251961       25.268141       20.411742
  O           12.745783       25.400010       21.514035
  O           11.686155       24.135176       19.927125
  C           11.705082       23.039992       20.843101
  H           10.791547       28.450130       19.896342
  H           12.100499       29.339397       20.722932
  H           11.391526       27.883457       21.448601
  H           13.017488       27.981932       18.850362
  H           13.642731       27.386551       20.387206
  H           12.739075       22.763906       21.099293
  H           11.231516       22.183417       20.358215
  H           11.137549       23.283101       21.743770
  C           17.330814       14.016814       23.446468
  C           18.103881       15.306783       23.595283
  O           17.276544       16.328238       24.156659
  C           16.535286       17.031102       23.259375
  O           16.520557       16.873156       22.054743
  O           15.812604       17.949355       23.947228
  C           14.982676       18.769158       23.123855
  H           16.907933       13.706281       24.412718
  H           17.981510       13.214179       23.073813
  H           16.496353       14.132487       22.757560
  H           18.944978       15.156913       24.293491
  H           18.548251       15.621545       22.640003
  H           15.590207       19.348564       22.412381
  H           14.449661       19.470176       23.770050
  H           14.246487       18.160691       22.594521
  C           21.257212       38.607838       20.603572
  C           20.339366       37.745070       19.768713
  O           19.169254       38.473448       19.390159
  C           18.153644       38.447609       20.293745
  O           18.153741       37.870172       21.362794
  O           17.130593       39.180469       19.788885
  C           15.984243       39.238077       20.638216
  H           21.514726       39.531318       20.065268
  H           22.184930       38.070642       20.842862
  H           20.781002       38.906259       21.535489
  H           20.850809       37.454163       18.835333
  H           20.086603       36.808671       20.286756
  H           15.569882       38.231943       20.802531
  H           15.223924       39.845240       20.141861
  H           16.235165       39.710804       21.590039
  C           18.897040        3.243994        3.154908
  C           18.453126        1.830927        3.454876
  O           17.512033        1.380235        2.478033
  C           16.215306        1.700042        2.732635
  O           15.799345        2.314122        3.695019
  O           15.460059        1.207035        1.720140
  C           14.063051        1.467703        1.858784
  H           19.309230        3.311674        2.137844
  H           19.666495        3.569608        3.867940
  H           18.062410        3.940483        3.205850
  H           19.319991        1.150412        3.401542
  H           18.054312        1.743097        4.475823
  H           13.667991        0.999499        2.772957
  H           13.549053        1.030447        0.999882
  H           13.871890        2.542799        1.863865
  C            8.055414        3.098816       31.026045
  C            8.329869        1.706565       31.545768
  O            7.262467        1.262973       32.386529
  C            7.364680        1.626931       33.692549
  O            8.263103        2.274088       34.192872
  O            6.283396        1.134712       34.346113
  C            6.260282        1.440035       35.740761
  H            7.089693        3.131866       30.501459
  H            8.843828        3.416781       30.330488
  H            7.999968        3.820915       31.838326
  H            8.386246        0.999413       30.700689
  H            9.301313        1.653063       32.058147
  H            7.133059        1.003972       36.249788
  H            5.357528        0.999670       36.169964
  H            6.224187        2.520224       35.896614
  C           24.136274       17.915158       33.306039
  C           24.033995       18.640098       31.983995
  O           23.822973       17.713638       30.916221
  C           24.952977       17.177256       30.383318
  O           26.094682       17.415517       30.723967
  O           24.581993       16.326568       29.394733
  C           25.677273       15.688011       28.737917
  H           23.242235       17.298924       33.478808
  H           24.235852       18.629368       34.134585
  H           24.992574       17.243802       33.324288
  H           23.161994       19.315983       31.997885
  H           24.913648       19.275042       31.804672
  H           26.329031       16.431402       28.254615
  H           25.273258       15.031460       27.964087
  H           26.245912       15.079104       29.443808
  C            2.468841       24.856474        6.303848
  C            3.347916       25.167550        7.493074
  O            2.636746       25.950603        8.454357
  C            2.670702       27.293773        8.246173
  O            3.242221       27.869319        7.341512
  O            1.953849       27.884800        9.233801
  C            1.906347       29.308990        9.143092
  H            1.545087       24.355297        6.626960
  H            2.992731       24.202930        5.593271
  H            2.171470       25.764517        5.782955
  H            3.637327       24.229180        7.996166
  H            4.284637       25.653639        7.184252
  H            2.916816       29.738298        9.218246
  H            1.311751       29.682979        9.979565
  H            1.425219       29.618481        8.212968
  C           28.238197       13.062274       15.079228
  C           26.727396       13.097854       15.082769
  O           26.200536       12.231840       14.075079
  C           26.078284       12.787548       12.840233
  O           26.365439       13.926721       12.530188
  O           25.572107       11.843517       12.008854
  C           25.385346       12.293004       10.666512
  H           28.600574       12.031810       15.204638
  H           28.643682       13.678503       15.893073
  H           28.640669       13.427454       14.136382
  H           26.349767       12.728241       16.051367
  H           26.349293       14.124839       14.975814
  H           24.669424       13.127988       10.631067
  H           24.975010       11.464503       10.084868
  H           26.339568       12.585518       10.223458
  C           30.657824        9.007477       14.983795
  C           31.697119        7.910563       15.004876
  O           31.073026        6.626108       15.065567
  C           30.775303        6.185652       16.316951
  O           30.993155        6.771638       17.358806
  O           30.192214        4.967081       16.199940
  C           29.826499        4.377079       17.447718
  H           29.957873        8.860374       14.148732
  H           31.133174        9.991620       14.874232
  H           30.065981        9.009805       15.897041
  H           32.283758        7.937182       14.070774
  H           32.415811        8.053524       15.824720
  H           30.714071        4.217123       18.078298
  H           29.371248        3.405404       17.243529
  H           29.093501        4.998755       17.966016
  C           11.676738       22.363580       38.832415
  C           12.058559       23.127196       37.585457
  O           11.778068       24.519999       37.741733
  C           10.510638       24.894686       37.422624
  O            9.622842       24.168209       37.022187
  O           10.409617       26.231438       37.626314
  C            9.121174       26.768102       37.325142
  H           12.187445       22.780615       39.712279
  H           11.948988       21.303637       38.738075
  H           10.607751       22.429496       39.025343
  H           13.144651       23.037139       37.413137
  H           11.569050       22.710565       36.693326
  H            8.873238       26.614513       36.264039
  H            9.146974       27.842700       37.519238
  H            8.359404       26.320415       37.966766
  C            5.733341       13.503059       15.923466
  C            5.783629       14.969031       15.559878
  O            4.870090       15.719186       16.363441
  C            3.597652       15.781525       15.888449
  O            3.183788       15.272978       14.865514
  O            2.865573       16.519346       16.759243
  C            1.497118       16.672774       16.381633
  H            5.932808       13.363995       16.995741
  H            6.478790       12.934564       15.351085
  H            4.750428       13.079658       15.726202
  H            6.791743       15.367852       15.764933
  H            5.603352       15.123252       14.486185
  H            1.415300       17.194067       15.415941
  H            1.000903       17.279793       17.142159
  H            0.999892       15.701570       16.337727
  C           11.508720        4.682734       12.606692
  C           12.301215        5.618541       11.723507
  O           13.703670        5.453041       11.944257
  C           14.220411        6.190600       12.962876
  O           13.610211        6.960591       13.677768
  O           15.546590        5.918880       13.040450
  C           16.225290        6.633038       14.073960
  H           11.821397        3.641176       12.444549
  H           10.434162        4.763862       12.393984
  H           11.669449        4.901721       13.660500
  H           12.113615        5.376316       10.663539
  H           11.987538        6.663382       11.861398
  H           16.158617        7.718582       13.906184
  H           17.278988        6.346301       14.049413
  H           15.819364        6.369546       15.052835
  C           12.669086       27.633561       23.934953
  C           11.288123       28.245821       23.978302
  O           11.267386       29.492450       23.279385
  C           11.626166       30.576221       24.017841
  O           11.948556       30.576264       25.189321
  O           11.557069       31.666596       23.214779
  C           11.906860       32.888723       23.865050
  H           13.007746       27.517668       22.895348
  H           12.672361       26.646744       24.417323
  H           13.398488       28.265796       24.437498
  H           10.571154       27.580815       23.467301
  H           10.927819       28.352042       25.011743
  H           11.220509       33.096460       24.699775
  H           11.816935       33.698440       23.137471
  H           12.940238       32.854474       24.216272
  C            8.651396       30.198900       25.673048
  C            8.440594       31.684172       25.855614
  O            7.618370       32.208682       24.810703
  C            8.281039       32.576216       23.681815
  O            9.479091       32.503954       23.492738
  O            7.366025       33.045281       22.797888
  C            7.926066       33.474873       21.556678
  H            7.685968       29.675457       25.619595
  H            9.230637       29.782684       26.508358
  H            9.179902       29.984958       24.746112
  H            7.908904       31.869655       26.804456
  H            9.398000       32.220033       25.928598
  H            8.632411       34.303944       21.713899
  H            7.112031       33.833418       20.922728
  H            8.417179       32.642352       21.048625
  C            5.051588       26.673193       11.590770
  C            4.242330       26.332655       10.360756
  O            4.280031       24.926707       10.106019
  C            5.337683       24.500681        9.365429
  O            6.225439       25.194077        8.910026
  O            5.226726       23.157309        9.218327
  C            6.277661       22.569269        8.451159
  H            4.697153       26.097532       12.457886
  H            4.972859       27.743644       11.824087
  H            6.102587       26.426110       11.454196
  H            3.184631       26.599235       10.526909
  H            4.573568       26.913891        9.488091
  H            6.288027       22.975477        7.428473
  H            6.093927       21.494206        8.391313
  H            7.242506       22.727232        8.937494
  C           39.060938       25.061382       28.802152
  C           39.309742       23.603859       29.114442
  O           39.993830       22.966469       28.033351
  C           39.193198       22.481254       27.047372
  O           37.980001       22.536834       27.010411
  O           39.989733       21.916079       26.106783
  C           39.276816       21.356656       25.003336
  H           40.005406       25.572575       28.566436
  H           38.591482       25.567580       29.656478
  H           38.413477       25.175609       27.934946
  H           39.962920       23.520284       29.999752
  H           38.375914       23.082407       29.369691
  H           38.606044       20.551952       25.340257
  H           40.004752       20.928757       24.310434
  H           38.714566       22.131025       24.477382
  C           29.747630        1.975515       33.056545
  C           28.384419        1.631243       32.502531
  O           27.667022        2.817853       32.155694
  C           26.963971        3.386889       33.170838
  O           26.891158        2.981378       34.313886
  O           26.349615        4.492119       32.681314
  C           25.565089        5.194503       33.645666
  H           30.310989        2.591634       32.341057
  H           30.324171        1.064165       33.265213
  H           29.667309        2.551314       33.976493
  H           28.498140        1.043887       31.575450
  H           27.814909        0.999932       33.199815
  H           24.755345        4.555688       34.029372
  H           25.115347        6.059334       33.152818
  H           26.193114        5.552501       34.464092
  C           25.479817       20.014647       25.038704
  C           26.522785       19.622054       26.059434
  O           27.249502       20.769614       26.504392
  C           28.319642       21.110195       25.737968
  O           28.703281       20.535502       24.738543
  O           28.891799       22.208927       26.289353
  C           30.040542       22.680123       25.584256
  H           24.807902       20.782337       25.448681
  H           24.878933       19.144332       24.742075
  H           25.938095       20.437772       24.146937
  H           26.029320       19.191926       26.947624
  H           27.192318       18.841485       25.670155
  H           30.830889       21.914504       25.570851
  H           30.423407       23.559125       26.107583
  H           29.772744       22.974236       24.567309
  C           34.430568       37.087779       12.759704
  C           35.437495       36.246001       13.508909
  O           36.322873       37.074181       14.266024
  C           37.408837       37.532132       13.588115
  O           37.685912       37.299703       12.428155
  O           38.137307       38.295990       14.439263
  C           39.320249       38.844976       13.857831
  H           33.878560       37.738225       13.453323
  H           33.710878       36.451317       12.227293
  H           34.918240       37.737617       12.035697
  H           34.913933       35.595003       14.229663
  H           35.985951       35.576661       12.830469
  H           40.000117       38.044863       13.528289
  H           39.830996       39.436274       14.621117
  H           39.068107       39.503166       13.023799
  C            6.944224       24.064920       36.331136
  C            5.942205       24.695307       37.270482
  O            5.085990       23.700142       37.835762
  C            3.991903       23.387277       37.091659
  O            3.685696       23.871515       36.020188
  O            3.293708       22.436409       37.760221
  C            2.106145       22.011153       37.091154
  H            7.520903       23.284730       36.848480
  H            7.642592       24.819244       35.944124
  H            6.449962       23.587117       35.487507
  H            6.472255       25.175664       38.110544
  H            5.369143       25.490518       36.772145
  H            1.407610       22.852015       36.964668
  H            1.621144       21.252415       37.709370
  H            2.349102       21.564339       36.124857
  C           21.052868       17.141337       21.707081
  C           21.554277       15.960866       22.506379
  O           22.243535       15.036521       21.661685
  C           21.454980       14.115501       21.046459
  O           20.249314       14.010668       21.154529
  O           22.254502       13.325015       20.288503
  C           21.554800       12.300593       19.581554
  H           21.882370       17.626191       21.172532
  H           20.577796       17.882361       22.364112
  H           20.329051       16.831993       20.955618
  H           22.280271       16.305935       23.262197
  H           20.738420       15.475501       23.061265
  H           21.049332       11.618989       20.282209
  H           22.284530       11.724142       19.008580
  H           20.836752       12.737256       18.884322
  C            2.841155        5.492137       18.538676
  C            3.979476        5.015558       19.410970
  O            4.829676        6.106756       19.770758
  C            5.811869        6.394898       18.875844
  O            6.025881        5.817002       17.828689
  O            6.519683        7.444924       19.360658
  C            7.595953        7.857315       18.517819
  H            2.278364        6.292048       19.040980
  H            2.152397        4.666869       18.312746
  H            3.207019        5.903188       17.599804
  H            3.577880        4.599779       20.350783
  H            4.541747        4.202541       18.929353
  H            8.327142        7.044373       18.393366
  H            8.098712        8.700412       18.996901
  H            7.218889        8.187279       17.547589
  C           37.997502       22.591646       35.824839
  C           39.439223       22.972636       35.579714
  O           39.669740       24.334910       35.945872
  C           39.402058       25.248549       34.975197
  O           39.000173       25.012238       33.853169
  O           39.667672       26.479016       35.479178
  C           39.432940       27.545453       34.559170
  H           37.721254       22.778971       36.872454
  H           37.833047       21.528493       35.603121
  H           37.321804       23.181310       35.208374
  H           40.099003       22.355315       36.212964
  H           39.736071       22.774433       34.539668
  H           40.079444       27.446215       33.674193
  H           39.677678       28.485323       35.059017
  H           38.381487       27.574920       34.265950
  C           22.736367        5.056204       18.732652
  C           22.616310        6.350254       17.961405
  O           22.740053        6.113417       16.557270
  C           24.013856        6.102946       16.081963
  O           25.026908        6.278101       16.729533
  O           23.956908        5.865468       14.748186
  C           25.233951        5.830572       14.110420
  H           21.993128        4.326406       18.380672
  H           22.579336        5.227253       19.806237
  H           23.716004        4.602677       18.595084
  H           21.616940        6.788350       18.124906
  H           23.342077        7.097202       18.314152
  H           25.747666        6.798298       14.213384
  H           25.077316        5.636890       13.046910
  H           25.845981        5.024702       14.520775
  C           33.134685       21.570266       10.530115
  C           34.637344       21.688199       10.639237
  O           35.255603       21.438251        9.375005
  C           35.511078       20.130640        9.103919
  O           35.270460       19.183792        9.826333
  O           36.089664       20.066318        7.879297
  C           36.419196       18.740959        7.462606
  H           32.749598       22.246326        9.753230
  H           32.654329       21.823030       11.485033
  H           32.835946       20.562088       10.249703
  H           34.908665       22.717415       10.929924
  H           35.036126       21.030414       11.424981
  H           37.144397       18.284276        8.152914
  H           36.877976       18.800186        6.473105
  H           35.519237       18.126935        7.388780
  C            2.030548       23.030577       27.748024
  C            2.752703       22.668824       26.470751
  O            4.069956       22.191920       26.754310
  C            5.023295       23.155115       26.863855
  O            4.856877       24.352252       26.739490
  O            6.202529       22.542681       27.133914
  C            7.303903       23.440765       27.272550
  H            2.008595       22.172822       28.435538
  H            0.997337       23.337904       27.537017
  H            2.532415       23.842818       28.270226
  H            2.218323       21.848521       25.961888
  H            2.767722       23.511852       25.764934
  H            7.471478       23.999105       26.339183
  H            8.198474       22.850989       27.484699
  H            7.137592       24.126228       28.106146
  C            8.897560       11.051120       11.645321
  C            9.692096       11.421754       10.414409
  O           10.915659       10.684662       10.363531
  C           11.955491       11.241433       11.039812
  O           11.935496       12.285130       11.661581
  O           13.028726       10.425421       10.895270
  C           14.205045       10.891918       11.556672
  H            8.715862        9.967167       11.675855
  H            7.929351       11.569766       11.654056
  H            9.435117       11.308355       12.555905
  H            9.120222       11.154927        9.509333
  H            9.867023       12.505994       10.360337
  H           14.520710       11.864789       11.150620
  H           15.004618       10.169693       11.377299
  H           14.038149       10.960563       12.633628
  C           27.418116       24.897544       21.455470
  C           26.875225       25.923668       20.487927
  O           27.624031       27.138460       20.568964
  C           27.207410       28.012800       21.523195
  O           26.276017       27.856465       22.287634
  O           28.015550       29.100334       21.470498
  C           27.688938       30.112140       22.423584
  H           28.488377       24.723380       21.273515
  H           26.884327       23.943317       21.350497
  H           27.322369       25.235063       22.485623
  H           26.980489       25.551520       19.454571
  H           25.800764       26.096017       20.645819
  H           26.671664       30.495274       22.252235
  H           28.392375       30.938079       22.296692
  H           27.788870       29.727827       23.440794
  C           18.318403        7.698528       27.614126
  C           17.590360        6.453197       28.064575
  O           17.088954        5.727863       26.939639
  C           15.865758        6.121590       26.495377
  O           15.179588        7.008594       26.963026
  O           15.539818        5.343432       25.433853
  C           14.266541        5.645607       24.862666
  H           19.122725        7.442207       26.909665
  H           18.757928        8.224116       28.472657
  H           17.649297        8.382861       27.096162
  H           18.291692        5.783035       28.590330
  H           16.793497        6.691479       28.783832
  H           13.462575        5.489170       25.597625
  H           14.100921        4.966384       24.023424
  H           14.248589        6.670138       24.485287
  C           23.246135       15.403491        6.650744
  C           22.102904       16.371402        6.450818
  O           22.010150       17.276409        7.553251
  C           21.274588       16.831967        8.606827
  O           20.701181       15.763741        8.686801
  O           21.288426       17.797315        9.558936
  C           20.545451       17.465229       10.732183
  H           24.189434       15.946646        6.805887
  H           23.358168       14.747960        5.776542
  H           23.089626       14.782074        7.530315
  H           22.286834       16.982065        5.550451
  H           21.154547       15.842831        6.276655
  H           19.483468       17.308863       10.489818
  H           20.618416       18.303241       11.428970
  H           20.964463       16.579327       11.213855
  C           15.192794       34.000766       20.815168
  C           13.791843       33.548720       21.156915
  O           12.851693       34.599156       20.920897
  C           12.681074       35.466358       21.954071
  O           13.239661       35.422772       23.032209
  O           11.768707       36.393438       21.571044
  C           11.485819       37.375187       22.568513
  H           15.240821       34.357834       19.776372
  H           15.908047       33.176002       20.936321
  H           15.508055       34.826983       21.449419
  H           13.503159       32.708329       20.502847
  H           13.731425       33.171916       22.188161
  H           11.064195       36.905011       23.469716
  H           10.743817       38.066912       22.163484
  H           12.386044       37.941688       22.815640
  C            5.619028       24.937403       31.452587
  C            5.564811       26.378048       30.999374
  O            5.982453       27.252855       32.049750
  C            5.002977       27.627173       32.915263
  O            3.835018       27.295292       32.870251
  O            5.559286       28.445284       33.842525
  C            4.637068       28.922555       34.822590
  H            6.626753       24.683008       31.811296
  H            5.358556       24.260170       30.627960
  H            4.933379       24.755884       32.277958
  H            6.264584       26.529554       30.159872
  H            4.566987       26.643061       30.620936
  H            3.838986       29.515427       34.350819
  H            5.181225       29.569164       35.514609
  H            4.214199       28.090309       35.389113
  C           38.163720       13.779062       12.511495
  C           39.099288       14.768411       13.167013
  O           38.422488       15.997431       13.439869
  C           38.409382       16.891003       12.415195
  O           38.914168       16.740471       11.320284
  O           37.733439       17.990089       12.831983
  C           37.643451       19.022538       11.849765
  H           37.272959       13.617917       13.135576
  H           38.664175       12.813418       12.357952
  H           37.813930       14.143629       11.547629
  H           39.440939       14.369304       14.137264
  H           40.004186       14.926997       12.562770
  H           38.644879       19.383542       11.570806
  H           37.086814       19.856327       12.283412
  H           37.103184       18.668589       10.969292
  C           28.093774       25.979179       16.666199
  C           29.374528       26.055358       17.464740
  O           29.627293       27.397927       17.885000
  C           30.297153       28.169063       16.987650
  O           30.692760       27.822666       15.892294
  O           30.452230       29.400631       17.533353
  C           31.149174       30.322715       16.695003
  H           27.252235       26.384386       17.246302
  H           27.865329       24.939400       16.395695
  H           28.161226       26.566633       15.752608
  H           29.277986       25.446663       18.379929
  H           30.223124       25.637253       16.904229
  H           32.168668       29.965304       16.485505
  H           31.221761       31.275295       17.224553
  H           30.600415       30.486466       15.765246
  C           22.738684       27.099708       21.353202
  C           21.968808       25.799944       21.311941
  O           21.880483       25.224863       22.617498
  C           22.929826       24.437994       22.975713
  O           23.905970       24.184760       22.297986
  O           22.694084       23.977584       24.229128
  C           23.722104       23.126805       24.737212
  H           22.281346       27.796929       22.069879
  H           22.754056       27.574282       20.362725
  H           23.765824       26.941455       21.676063
  H           20.935315       25.991295       20.976267
  H           22.403961       25.097922       20.586056
  H           23.829352       22.228234       24.111059
  H           23.435926       22.811684       25.743145
  H           24.669508       23.665948       24.801652
  C           29.966044        5.281416        9.993737
  C           31.145747        4.994386        9.093894
  O           32.272062        4.563935        9.861439
  C           33.056195        5.562099       10.348681
  O           32.889047        6.754725       10.187425
  O           34.067867        4.990968       11.047917
  C           34.980256        5.929354       11.618686
  H           29.723290        4.400437       10.605166
  H           29.081644        5.552015        9.401190
  H           30.182330        6.095693       10.682558
  H           30.894789        4.170233        8.404553
  H           31.390007        5.860996        8.462686
  H           35.468153        6.525919       10.833150
  H           35.751409        5.370846       12.153935
  H           34.467462        6.578230       12.331710
  C           37.969898       14.994700        7.804697
  C           39.396327       15.448365        8.012759
  O           39.447476       16.548412        8.923956
  C           39.279853       17.774668        8.361107
  O           39.100757       18.009003        7.182416
  O           39.352117       18.698686        9.350838
  C           39.195517       20.044489        8.900181
  H           37.500573       14.742622        8.766513
  H           37.933952       14.110444        7.154082
  H           37.366464       15.779932        7.353502
  H           39.983466       14.630988        8.465046
  H           39.885431       15.687525        7.057417
  H           39.992564       20.313205        8.190598
  H           39.271715       20.704148        9.767444
  H           38.212596       20.185144        8.445777
  C            9.042922        6.930164       11.213881
  C            8.102532        6.042300       11.995650
  O            7.864069        4.819762       11.294554
  C            6.854959        4.861725       10.384313
  O            6.154909        5.820930       10.127105
  O            6.761691        3.636156        9.811705
  C            5.730951        3.532204        8.829071
  H            9.982024        6.401347       10.996303
  H            9.276598        7.842472       11.779203
  H            8.611975        7.217987       10.256936
  H            8.563506        5.772524       12.961116
  H            7.164741        6.563502       12.236472
  H            4.744073        3.721073        9.277847
  H            5.739099        2.513621        8.434708
  H            5.916556        4.222599        8.003659
  C            5.106779       17.517062       19.674325
  C            5.848852       18.827414       19.547428
  O            6.132432       19.115264       18.176398
  C            7.281897       18.570510       17.696217
  O            8.069030       17.883863       18.316892
  O            7.400678       18.932960       16.395017
  C            8.575357       18.429933       15.757919
  H            4.189469       17.532412       19.068349
  H            4.833194       17.324737       20.720586
  H            5.709353       16.684492       19.316509
  H            5.216321       19.649936       19.922613
  H            6.760499       18.834210       20.162207
  H            9.481086       18.812859       16.251906
  H            8.575980       18.778366       14.722693
  H            8.572023       17.337975       15.753788
  C           14.422234       35.528950       29.262826
  C           14.663291       36.627077       30.272683
  O           13.455242       36.948457       30.965744
  C           12.663306       37.868137       30.352861
  O           12.890914       38.428236       29.298924
  O           11.568485       38.056637       31.130315
  C           10.642346       39.008836       30.606497
  H           13.990583       34.643313       29.750909
  H           15.361464       35.237403       28.773596
  H           13.717014       35.843875       28.496154
  H           15.385149       36.281021       31.032003
  H           15.111631       37.514201       29.802468
  H           11.111415       40.000263       30.516796
  H            9.805114       39.087360       31.303616
  H           10.256171       38.677277       29.640403
  C           11.473811       25.133637        5.327591
  C           10.901736       24.107226        6.277861
  O            9.676812       24.574841        6.846980
  C            9.811675       25.338607        7.963704
  O           10.854624       25.644436        8.506867
  O            8.569956       25.699217        8.371988
  C            8.558617       26.508651        9.548206
  H           10.740764       25.390403        4.549380
  H           12.381694       24.750823        4.842100
  H           11.722956       26.057572        5.845830
  H           10.665010       23.181699        5.725811
  H           11.630005       23.826707        7.052479
  H            9.000109       25.967072       10.398369
  H            7.519152       26.739889        9.791393
  H            9.088419       27.447321        9.373252
  C           18.662007       19.758165       23.280749
  C           18.793969       21.252834       23.460610
  O           17.993862       21.948379       22.501941
  C           18.592851       22.173725       21.302344
  O           19.720081       21.848344       20.986467
  O           17.708338       22.833807       20.514608
  C           18.208701       23.142510       19.213401
  H           17.607204       19.453612       23.340232
  H           19.226495       19.221836       24.055478
  H           19.028686       19.442745       22.305887
  H           18.420512       21.540978       24.458058
  H           19.845757       21.571094       23.421203
  H           19.088427       23.800271       19.279981
  H           17.425851       23.671274       18.665081
  H           18.452710       22.227860       18.669090
  C           10.763404       16.081856       38.585212
  C            9.308617       15.681660       38.670284
  O            9.160884       14.475667       39.423116
  C            9.297588       13.326879       38.708834
  O            9.522864       13.240336       37.518010
  O            9.133282       12.285935       39.562086
  C            9.247836       11.004647       38.942425
  H           11.196500       16.179827       39.591060
  H           10.872995       17.040790       38.060868
  H           11.350331       15.331654       38.058892
  H            8.739417       16.462667       39.202673
  H            8.856083       15.596683       37.671739
  H            8.474645       10.874555       38.170251
  H            9.098120       10.241700       39.709626
  H           10.244054       10.872636       38.515199
  C           10.742327       19.217750       11.661394
  C           10.206788       19.183052       10.248669
  O            9.155043       20.136986       10.084837
  C            7.914756       19.695274       10.424215
  O            7.631329       18.588595       10.838016
  O            7.041131       20.710953       10.214987
  C            5.686875       20.384790       10.528689
  H           11.074978       20.232403       11.923544
  H           11.591703       18.530185       11.772374
  H            9.976183       18.939021       12.382250
  H           11.006098       19.463850        9.541805
  H            9.886039       18.170205        9.965186
  H            5.329178       19.556930        9.898054
  H            5.069987       21.262769       10.324476
  H            5.587953       20.132861       11.586586
  C           11.444864        7.367868       18.796371
  C           12.224150        6.102994       19.073148
  O           11.567058        4.970566       18.499705
  C           10.614421        4.396580       19.281768
  O           10.287018        4.750706       20.396982
  O           10.091792        3.349135       18.597431
  C            9.072279        2.644153       19.306229
  H           11.289785        7.497298       17.715585
  H           11.979604        8.246414       19.182000
  H           10.459202        7.334362       19.256423
  H           13.218796        6.168928       18.600145
  H           12.402814        5.968443       20.149752
  H            9.470798        2.215044       20.237920
  H            8.722892        1.825246       18.673441
  H            8.226355        3.301802       19.516728
  C           35.467119       19.519357       15.165800
  C           34.325360       19.376041       14.186185
  O           33.991330       17.998875       13.999531
  C           34.714398       17.351698       13.047200
  O           35.591655       17.831799       12.357110
  O           34.280200       16.068101       12.997701
  C           34.955015       15.264683       12.029225
  H           35.220660       19.032188       16.120171
  H           35.683913       20.578838       15.358153
  H           36.371903       19.044338       14.791604
  H           33.425797       19.871378       14.589704
  H           34.549764       19.873866       13.231767
  H           34.801252       15.664603       11.015607
  H           34.532168       14.258330       12.068646
  H           36.020451       15.199858       12.259540
  C           35.497953        9.761357       25.784992
  C           36.948494        9.537375       26.144941
  O           37.557664       10.759730       26.566558
  C           38.062725       11.529965       25.566433
  O           38.045747       11.272720       24.379067
  O           38.596906       12.642125       26.128882
  C           39.172680       13.548470       25.187699
  H           34.955528       10.211021       26.629076
  H           35.011783        8.812509       25.520744
  H           35.399653       10.445385       24.944313
  H           37.016076        8.836752       26.994624
  H           37.500941        9.071453       25.316196
  H           40.000276       13.070403       24.642231
  H           39.573229       14.401932       25.739299
  H           38.413762       13.913215       24.492426
  C           14.155933       36.893391       19.179376
  C           12.951676       36.141166       18.661955
  O           13.272631       34.765698       18.442695
  C           13.806499       34.482819       17.224678
  O           14.022919       35.276012       16.330079
  O           14.053559       33.150334       17.179464
  C           14.617434       32.706749       15.944929
  H           14.543729       36.420143       20.092913
  H           13.894952       37.935657       19.407563
  H           14.966126       36.891602       18.452820
  H           12.146789       36.165361       19.416256
  H           12.541187       36.612974       17.757524
  H           13.930023       32.905155       15.108806
  H           14.774234       31.627814       16.011363
  H           15.583430       33.185066       15.770391
  C           25.506861        1.657620       26.416538
  C           25.461082        2.899932       27.275819
  O           25.349904        2.552912       28.657925
  C           24.081008        2.357615       29.105543
  O           23.062080        2.455382       28.450922
  O           24.150116        2.036396       30.421082
  C           22.878995        1.805218       31.029035
  H           26.328238        0.998921       26.733327
  H           25.655034        1.920451       25.360382
  H           24.587334        1.082077       26.503249
  H           26.402365        3.464349       27.162596
  H           24.654994        3.577753       26.959779
  H           22.253842        2.709604       30.981382
  H           23.045031        1.558065       32.079962
  H           22.373343        0.962652       30.552802
  C           32.735703       22.058893       22.910065
  C           33.651629       20.976846       23.433566
  O           33.001001       19.704696       23.397274
  C           32.246300       19.409065       24.488891
  O           32.086567       20.111671       25.467221
  O           31.701786       18.182204       24.296750
  C           30.879607       17.737259       25.376030
  H           32.388044       21.813553       21.896240
  H           33.254845       23.026367       22.878655
  H           31.849315       22.162897       23.532800
  H           34.541973       20.899182       22.786529
  H           34.022150       21.216421       24.440749
  H           31.465306       17.655074       26.304040
  H           30.495319       16.746315       25.124132
  H           30.031230       18.410554       25.515068
  C           15.268815       28.357789        5.158941
  C           15.602240       28.285831        6.631167
  O           15.622253       29.593509        7.207862
  C           16.807334       30.252393        7.107590
  O           17.823542       29.834297        6.589114
  O           16.658525       31.465311        7.695201
  C           17.836587       32.271647        7.667099
  H           14.313903       28.880399        5.004275
  H           15.191534       27.350430        4.727947
  H           16.026379       28.911726        4.607986
  H           14.821030       27.714612        7.161092
  H           16.546797       27.749949        6.803627
  H           18.657500       31.781563        8.212003
  H           17.612235       33.218226        8.163843
  H           18.131544       32.484447        6.637479
  C            4.901292        9.533060       34.091943
  C            6.236121        9.906754       33.489960
  O            7.164919        8.827463       33.614318
  C            7.853977        8.788711       34.785769
  O            7.754386        9.573981       35.707579
  O            8.681548        7.715374       34.744847
  C            9.476915        7.551364       35.919280
  H            4.513507        8.613359       33.630777
  H            4.168166       10.337118       33.941894
  H            4.988400        9.340207       35.159426
  H            6.114987       10.101584       32.410716
  H            6.629174       10.835184       33.928854
  H           10.133738        8.421366       36.069884
  H           10.104176        6.667428       35.784001
  H            8.842214        7.392758       36.793580
  C           15.133124        7.274191       33.243970
  C           14.021383        6.289647       32.963780
  O           14.539160        5.104736       32.354771
  C           14.657043        5.153609       31.001141
  O           14.363128        6.089955       30.284782
  O           15.159586        3.964824       30.585401
  C           15.334363        3.871890       29.171323
  H           15.912560        6.810107       33.865263
  H           14.746512        8.158561       33.768298
  H           15.613745        7.601097       32.323950
  H           13.550438        5.981728       33.912883
  H           13.224844        6.744695       32.357515
  H           14.370433        3.979647       28.651488
  H           15.738328        2.883001       28.943263
  H           16.045621        4.623358       28.822315
  C           22.515369       31.348441        2.770983
  C           22.036337       32.762781        3.003301
  O           22.330756       33.181789        4.337748
  C           21.394596       32.853477        5.267488
  O           20.356034       32.256008        5.065694
  O           21.822446       33.316038        6.468147
  C           20.927658       33.043227        7.546910
  H           23.589072       31.263121        2.991847
  H           22.346363       31.046853        1.728399
  H           22.000777       30.644163        3.421742
  H           22.570638       33.451389        2.326736
  H           20.967082       32.868476        2.769588
  H           19.953830       33.526899        7.377440
  H           21.361237       33.456033        8.460529
  H           20.804240       31.966475        7.680227
  C           22.080678        3.377722       25.339538
  C           22.815122        4.482840       24.616278
  O           22.141953        5.731943       24.788280
  C           21.151655        5.984216       23.891470
  O           20.803526        5.261465       22.978925
  O           20.618393        7.194165       24.191895
  C           19.559547        7.593480       23.321154
  H           21.959694        3.626397       26.403692
  H           22.629529        2.429534       25.260784
  H           21.081975        3.233289       24.932069
  H           23.824100        4.601464       25.046734
  H           22.959642        4.240825       23.553432
  H           19.919305        7.681713       22.284916
  H           19.204534        8.574191       23.645609
  H           18.727379        6.888955       23.380655
  C            9.517227       11.351403        5.916821
  C           10.986039       11.059190        6.119310
  O           11.700758       11.192681        4.888717
  C           11.723077       10.079430        4.108477
  O           11.206597        9.009536        4.363185
  O           12.431175       10.371312        2.989548
  C           12.540781        9.282561        2.072265
  H            9.379021       12.349809        5.477520
  H            8.977164       11.310491        6.872414
  H            9.062250       10.638030        5.232428
  H           11.417251       11.793618        6.820788
  H           11.140044       10.070272        6.574748
  H           13.064348        8.433107        2.536277
  H           13.126653        9.619146        1.214032
  H           11.553731        8.978661        1.717614
  C            6.692911       26.768643       25.566298
  C            7.548615       26.981127       26.793661
  O            6.731668       27.158818       27.952982
  C            6.320736       28.434530       28.181657
  O            6.585579       29.409625       27.506862
  O            5.561401       28.430591       29.305042
  C            5.060382       29.716687       29.670744
  H            6.011852       25.918001       25.712817
  H            7.318530       26.569831       24.685630
  H            6.073263       27.639160       25.360054
  H            8.168415       26.086172       26.973395
  H            8.248131       27.818268       26.655921
  H            5.887221       30.412301       29.879210
  H            4.468808       29.604208       30.582056
  H            4.412529       30.113443       28.886352
  C            8.537108       36.839194       34.521991
  C            9.450766       37.792939       33.787552
  O           10.280922       37.085088       32.864086
  C           11.435215       36.590234       33.384978
  O           11.813162       36.699856       34.534517
  O           12.098995       35.951611       32.389912
  C           13.342968       35.380428       32.796212
  H            7.938252       36.252847       33.810326
  H            7.855456       37.387432       35.186284
  H            9.104501       36.128670       35.119922
  H            8.847923       38.503053       33.196183
  H           10.044248       38.399637       34.486691
  H           14.031947       36.160605       33.153466
  H           13.794209       34.896044       31.927389
  H           13.184306       34.624602       33.568193
  C            2.217441       16.415877       26.497492
  C            2.948985       17.287743       27.491722
  O            4.067408       17.927928       26.873423
  C            5.217445       17.202714       26.864458
  O            5.372651       16.090670       27.328750
  O            6.170125       17.943544       26.246258
  C            7.443217       17.301816       26.167381
  H            1.910325       17.003933       25.620696
  H            1.322156       15.972419       26.953902
  H            2.853450       15.611565       26.132972
  H            2.278312       18.088634       27.846928
  H            3.247540       16.717370       28.383147
  H            7.839381       17.096750       27.173365
  H            8.133524       17.978090       25.658234
  H            7.372951       16.379880       25.586437
  C           23.495039        4.509569       10.271918
  C           23.927713        3.743563        9.043167
  O           24.768583        2.645495        9.403979
  C           26.090177        2.942503        9.521343
  O           26.603630        4.029574        9.345437
  O           26.741799        1.804851        9.867375
  C           28.151682        1.968646       10.022941
  H           22.997722        3.840585       10.988881
  H           22.798996        5.315532       10.002757
  H           24.348181        4.947731       10.786178
  H           23.042663        3.317008        8.541036
  H           24.411542        4.402936        8.308158
  H           28.612915        2.293924        9.078241
  H           28.577817        1.001061       10.297328
  H           28.369526        2.680049       10.822222
  C           30.904281       33.171039       13.871473
  C           32.280068       33.059016       13.256282
  O           32.442962       34.017056       12.208128
  C           32.008343       33.615455       10.984027
  O           31.512327       32.540244       10.711650
  O           32.230219       34.629684       10.111839
  C           31.821894       34.343575        8.773851
  H           30.723790       34.194558       14.230266
  H           30.799058       32.478709       14.717703
  H           30.125994       32.948030       13.144261
  H           33.046392       33.284437       14.017421
  H           32.482593       32.035830       12.908182
  H           32.379641       33.484569        8.371326
  H           32.044692       35.216799        8.156647
  H           30.746677       34.157636        8.732174
  C           39.138158       29.067551        2.052744
  C           37.872247       29.392300        2.811563
  O           38.013869       29.058805        4.194215
  C           37.716231       27.770910        4.512550
  O           37.345485       26.905261        3.744761
  O           37.902270       27.619953        5.847166
  C           37.620618       26.304863        6.326761
  H           40.000738       29.578937        2.503678
  H           39.053714       29.380583        1.003277
  H           39.352731       28.000972        2.078574
  H           37.678268       30.477370        2.762626
  H           36.996948       28.901820        2.361695
  H           36.567397       26.041553        6.146779
  H           37.798245       26.291034        7.404424
  H           38.284798       25.575268        5.858836
  C           12.476876        1.921983       29.694689
  C           12.373633        2.013978       31.199573
  O           11.178139        2.697840       31.581837
  C           11.279128        4.052514       31.638920
  O           12.272099        4.712374       31.404626
  O           10.070755        4.543226       32.009913
  C           10.030461        5.966642       32.115100
  H           11.583982        1.436491       29.275240
  H           13.362458        1.342710       29.400261
  H           12.543704        2.909034       29.241296
  H           12.313453        0.999861       31.630091
  H           13.267949        2.481820       31.635948
  H           10.737401        6.321137       32.880325
  H            9.022154        6.256356       32.419208
  H           10.245191        6.429068       31.149464
  C           32.066526       33.665857       30.542594
  C           30.678829       33.156355       30.228739
  O           30.243775       32.231174       31.227623
  C           30.619500       30.940422       31.024178
  O           31.270437       30.517355       30.089515
  O           30.134132       30.200342       32.051456
  C           30.452134       28.810959       31.966079
  H           32.095603       34.114088       31.546160
  H           32.377508       34.423452       29.810584
  H           32.796021       32.858346       30.534662
  H           29.963981       33.996772       30.238290
  H           30.629185       32.720550       29.220419
  H           30.019995       28.367340       31.056432
  H           30.016430       28.308900       32.832796
  H           31.533723       28.662634       31.989828
  C           18.781500       10.128819       21.294213
  C           17.784583        8.996376       21.207430
  O           18.402030        7.820835       20.678412
  C           18.416687        7.735215       19.321557
  O           17.957977        8.547003       18.542529
  O           19.033233        6.575148       18.985825
  C           19.117646        6.349607       17.578415
  H           19.654894        9.829623       21.891343
  H           18.325444       11.013789       21.758261
  H           19.151074       10.407370       20.309264
  H           17.424271        8.740872       22.218515
  H           16.896458        9.286292       20.627530
  H           18.113424        6.286554       17.132810
  H           19.624933        5.395808       17.417085
  H           19.702816        7.136510       17.098041
  C           28.807590        9.252583        5.090638
  C           30.036400        8.684394        4.419082
  O           31.223934        9.149670        5.064281
  C           31.695216       10.344336        4.617887
  O           31.209939       11.028209        3.738613
  O           32.812351       10.640615        5.326992
  C           33.421883       11.878114        4.958393
  H           28.805306        9.007985        6.162583
  H           27.893445        8.847303        4.636119
  H           28.779872       10.337704        5.012887
  H           30.033504        7.584719        4.509119
  H           30.044425        8.905734        3.342028
  H           33.740995       11.857082        3.905433
  H           34.307198       12.019801        5.582286
  H           32.738197       12.710737        5.136478
  C            9.538385       21.665128       18.034594
  C            8.357750       22.006842       17.155314
  O            8.568987       23.254302       16.490315
  C            8.194555       24.355990       17.193652
  O            7.704644       24.369963       18.305449
  O            8.460878       25.445149       16.431153
  C            8.111468       26.684458       17.048265
  H           10.467637       21.655541       17.446973
  H            9.405654       20.677998       18.497689
  H            9.670234       22.402006       18.824485
  H            8.246214       21.240448       16.369439
  H            7.417556       22.003141       17.725509
  H            7.030911       26.727428       17.252100
  H            8.362216       27.491245       16.355936
  H            8.682340       26.829750       17.967719
  C            4.098611        7.644307        7.861146
  C            4.199566        6.277692        7.223987
  O            5.469730        6.109635        6.590393
  C            5.543466        6.564971        5.311396
  O            4.645803        7.082939        4.677195
  O            6.801636        6.334980        4.861160
  C            7.023898        6.763261        3.517294
  H            4.925242        7.802643        8.568614
  H            3.148459        7.752269        8.401569
  H            4.163400        8.434511        7.115707
  H            4.124903        5.499026        8.002128
  H            3.369104        6.097201        6.526238
  H            6.361755        6.225332        2.822169
  H            8.058391        6.531985        3.253784
  H            6.879003        7.841996        3.429337
  C           24.883907       16.456399       25.263424
  C           25.266749       15.805028       23.954628
  O           24.141909       15.141181       23.374075
  C           23.940890       13.864917       23.797566
  O           24.619649       13.255956       24.600530
  O           22.845065       13.384098       23.159929
  C           22.514868       12.039360       23.508425
  H           24.039950       17.146214       25.119225
  H           25.730179       17.019276       25.679949
  H           24.567288       15.716703       25.996160
  H           25.588112       16.577744       23.235575
  H           26.121683       15.124820       24.079148
  H           23.333434       11.354774       23.239553
  H           21.626275       11.750299       22.942787
  H           22.284838       11.964284       24.573249
  C           17.972761       38.030437       15.762016
  C           18.570566       39.412347       15.632580
  O           19.981453       39.333017       15.417862
  C           20.735503       39.257353       16.546703
  O           20.324462       39.256860       17.690095
  O           22.036784       39.186306       16.172242
  C           22.951250       39.105464       17.265868
  H           18.211621       37.421917       14.877964
  H           16.880618       38.087139       15.864530
  H           18.373739       37.504927       16.626514
  H           18.141386       39.921416       14.752776
  H           18.325337       40.039396       16.501931
  H           22.878502       40.000604       17.901817
  H           23.963702       39.055166       16.859039
  H           22.770145       38.201845       17.851593
  C           24.919533       16.516829       19.690080
  C           25.955557       16.754083       18.615759
  O           27.186006       16.108566       18.950875
  C           28.026057       16.835067       19.735165
  O           27.828096       17.956432       20.159020
  O           29.134080       16.086690       19.960592
  C           30.113753       16.731856       20.774719
  H           24.776245       15.439611       19.857325
  H           23.955362       16.959166       19.405102
  H           25.229098       16.946930       20.640597
  H           25.611697       16.312866       17.664713
  H           26.097521       17.827539       18.424345
  H           30.475896       17.652596       20.292962
  H           30.959597       16.050812       20.892312
  H           29.707048       16.950001       21.764367
  C           17.371695       12.260337       12.263786
  C           17.315380       12.800614       13.674009
  O           17.374179       11.734909       14.624701
  C           16.177331       11.169556       14.935394
  O           15.092235       11.487419       14.490613
  O           16.406030       10.184221       15.838395
  C           15.226237        9.500154       16.261411
  H           18.270970       11.643817       12.121989
  H           17.389632       13.080570       11.533446
  H           16.514593       11.625241       12.048544
  H           18.192227       13.443937       13.860226
  H           16.429821       13.434341       13.826568
  H           14.529521       10.193819       16.755796
  H           15.518075        8.734456       16.983654
  H           14.743161        9.008483       15.414477
  C           25.070805       32.588210        9.413875
  C           26.010367       32.279304       10.556504
  O           26.393840       33.479115       11.232079
  C           27.465513       34.125476       10.700727
  O           28.110099       33.777314        9.731401
  O           27.694760       35.232853       11.448899
  C           28.804523       36.013534       11.004192
  H           24.193832       33.144711        9.774603
  H           24.725929       31.662898        8.932877
  H           25.553055       33.209258        8.661523
  H           25.496250       31.644909       11.298545
  H           26.884776       31.707067       10.214372
  H           29.736160       35.429850       11.052821
  H           28.903475       36.873553       11.670282
  H           28.633464       36.381077        9.990264
  C           21.846397       30.240837       10.789734
  C           20.350120       30.375460       10.953539
  O           19.828838       31.346430       10.043329
  C           19.859298       32.631183       10.487270
  O           20.275025       33.012942       11.563248
  O           19.336993       33.418544        9.514717
  C           19.302319       34.806406        9.848538
  H           22.100320       29.993739        9.748885
  H           22.239819       29.451149       11.444036
  H           22.356212       31.172300       11.027993
  H           19.862458       29.415839       10.711229
  H           20.078771       30.605348       11.994030
  H           18.672122       34.978715       10.734067
  H           18.865552       35.347554        9.006224
  H           20.312358       35.186330       10.015511
  C           15.935802       28.568701        1.809955
  C           16.628510       29.830559        2.270028
  O           15.715160       30.681810        2.965847
  C           14.993774       31.523447        2.178542
  O           15.061172       31.614951        0.968838
  O           14.182497       32.252032        2.984516
  C           13.361986       33.189390        2.286718
  H           15.471767       28.050427        2.661404
  H           16.649896       27.885819        1.330121
  H           15.140055       28.789701        1.101262
  H           17.432123       29.574473        2.981383
  H           17.113067       30.351576        1.431669
  H           13.980160       33.925812        1.751422
  H           12.753870       33.721572        3.021618
  H           12.693002       32.673405        1.594894
  C           35.960412       17.982869       25.938098
  C           34.519613       18.404697       25.765007
  O           33.652067       17.557468       26.521688
  C           33.256421       16.420873       25.889061
  O           33.564262       16.076253       24.765331
  O           32.448590       15.735073       26.735045
  C           31.951024       14.509998       26.196139
  H           36.234971       17.973770       27.002726
  H           36.633334       18.670274       25.407863
  H           36.126588       16.976364       25.559108
  H           34.383754       19.428950       26.152109
  H           34.234671       18.435770       24.703431
  H           31.342538       14.697613       25.298617
  H           31.314750       14.040930       26.949948
  H           32.773571       13.829102       25.967671
  C           20.670918        5.730270        7.109453
  C           20.507762        6.961409        6.248363
  O           19.847767        6.635584        5.023110
  C           20.662665        6.206527        4.022884
  O           21.870331        6.085003        4.078336
  O           19.888016        5.939678        2.942462
  C           20.618113        5.479209        1.805042
  H           19.696617        5.254337        7.291459
  H           21.121311        5.989373        8.077189
  H           21.300741        4.987724        6.623399
  H           19.870730        7.696630        6.768977
  H           21.472244        7.459109        6.071815
  H           21.336782        6.241552        1.468370
  H           19.907179        5.297080        0.996029
  H           21.129928        4.541542        2.031379
  C           30.286659       13.964663        4.864185
  C           30.467747       14.027789        6.363192
  O           30.338969       15.372531        6.830189
  C           31.480940       16.109581        6.794682
  O           32.571811       15.731861        6.415698
  O           31.189895       17.348181        7.263470
  C           32.307392       18.236695        7.286782
  H           29.320242       14.400842        4.573174
  H           30.323089       12.925075        4.511437
  H           31.058841       14.531594        4.347829
  H           29.675476       13.440326        6.857757
  H           31.422915       13.578956        6.671905
  H           33.097690       17.851794        7.948810
  H           31.968874       19.197999        7.679721
  H           32.693817       18.393919        6.277646
  C           15.119777       31.976755       39.183537
  C           14.464947       32.534549       37.941013
  O           13.458288       33.488508       38.286844
  C           12.228522       32.966608       38.539616
  O           11.919639       31.792431       38.492709
  O           11.398661       33.992603       38.851490
  C           10.059821       33.588434       39.139508
  H           15.529941       32.788405       39.801510
  H           15.935577       31.290606       38.918641
  H           14.403273       31.438880       39.801284
  H           15.215751       33.068018       37.333474
  H           14.064912       31.733120       37.303218
  H            9.603892       33.098912       38.265725
  H            9.478058       34.482675       39.373996
  H           10.037231       32.925577       40.006981
  C           18.049125       10.594233       36.705062
  C           18.333945       11.916283       36.030629
  O           19.560264       12.472620       36.509826
  C           19.453573       13.222851       37.638706
  O           18.432978       13.458520       38.254454
  O           20.693214       13.669696       37.958423
  C           20.731925       14.482011       39.132069
  H           18.889056        9.899143       36.562700
  H           17.140058       10.135398       36.293276
  H           17.917814       10.717406       37.778322
  H           18.456141       11.760419       34.945191
  H           17.494839       12.616962       36.149157
  H           20.119959       15.387043       39.000103
  H           21.766843       14.789090       39.298638
  H           20.396633       13.914641       40.002742
  C           23.120111        1.796624       15.539216
  C           23.699611        2.994659       14.823191
  O           24.840481        2.616253       14.049742
  C           26.021669        2.614361       14.723086
  O           26.186378        2.903851       15.891575
  O           26.992631        2.234423       13.856207
  C           28.298855        2.191195       14.431281
  H           22.874038        1.000034       14.822423
  H           22.207199        2.073096       16.083876
  H           23.831172        1.376857       16.248080
  H           22.955247        3.400935       14.117314
  H           23.934760        3.807557       15.525331
  H           28.600186        3.187098       14.789576
  H           29.001393        1.878805       13.655424
  H           28.336592        1.462547       15.243715
  C           20.361325       26.494578       29.837575
  C           21.811746       26.853180       30.064478
  O           21.926215       27.907995       31.022216
  C           21.833052       29.165139       30.512797
  O           21.670805       29.460231       29.345365
  O           21.957957       30.039763       31.541403
  C           21.882659       31.410647       31.149220
  H           19.875723       26.229712       30.787804
  H           20.274291       25.642853       29.149470
  H           19.806650       27.333019       29.420857
  H           22.348240       25.983605       30.480906
  H           22.316310       27.103707       29.120152
  H           22.695836       31.661749       30.451588
  H           21.996040       32.026663       32.044077
  H           20.910845       31.628971       30.701656
  C           23.117170        7.907242       34.104456
  C           22.448301        8.461815       35.340928
  O           23.020782        9.720768       35.701901
  C           24.124444        9.649439       36.492750
  O           24.647629        8.635873       36.911392
  O           24.540914       10.916166       36.738831
  C           25.700509       10.994437       37.568296
  H           23.057622        8.628468       33.276695
  H           22.637184        6.970833       33.789413
  H           24.173335        7.711833       34.279474
  H           21.379752        8.643810       35.134818
  H           22.484085        7.744259       36.173354
  H           25.502725       10.554391       38.557357
  H           25.949280       12.049108       37.705706
  H           26.548569       10.500013       37.090028
  C           31.902010       31.935106        5.293667
  C           31.106276       32.888701        4.432700
  O           31.917246       33.990623        4.019062
  C           31.968543       35.031587        4.892195
  O           31.395845       35.105315        5.961251
  O           32.772837       35.982855        4.356660
  C           32.916768       37.146437        5.171621
  H           32.802542       31.594856        4.762469
  H           31.299041       31.056705        5.560766
  H           32.237282       32.415427        6.210827
  H           30.775914       32.372662        3.515113
  H           30.192451       33.224563        4.943797
  H           31.944172       37.638077        5.324418
  H           33.576490       37.845256        4.652470
  H           33.372693       36.889712        6.130070
  C           34.096853       28.984957        7.153660
  C           35.388445       29.721687        7.423510
  O           35.125279       31.058076        7.856879
  C           34.968491       31.969582        6.860299
  O           35.036397       31.752361        5.666773
  O           34.725483       33.173841        7.434151
  C           34.542436       34.236022        6.497634
  H           33.450730       28.999609        8.043160
  H           34.295035       27.939578        6.880885
  H           33.535864       29.451876        6.346456
  H           35.936552       29.222630        8.240773
  H           36.053560       29.700733        6.548134
  H           35.448027       34.379570        5.889112
  H           34.356739       35.154905        7.058233
  H           33.677662       34.040803        5.860096
  C           26.945146       22.127982       19.476190
  C           28.042576       22.450585       18.488579
  O           28.959358       21.359412       18.379718
  C           29.965678       21.355331       19.293995
  O           30.150074       22.179548       20.167474
  O           30.736655       20.265298       19.057308
  C           31.844548       20.134139       19.948471
  H           26.431772       21.197868       19.192931
  H           26.205749       22.939341       19.514779
  H           27.344888       21.977424       20.477109
  H           27.606862       22.603299       17.486465
  H           28.554402       23.388404       18.748637
  H           32.521972       20.996623       19.857813
  H           32.397422       19.233343       19.672795
  H           31.497933       20.023932       20.978088
  C           30.013759       30.604345       35.367090
  C           31.136652       31.010260       34.440728
  O           32.288803       31.405765       35.188475
  C           32.310973       32.710298       35.570966
  O           31.461716       33.546180       35.333556
  O           33.456696       32.919497       36.265340
  C           33.616569       34.260187       36.729874
  H           30.344254       29.807294       36.048547
  H           29.149510       30.240967       34.794787
  H           29.691055       31.438300       35.987315
  H           31.437597       30.147602       33.822139
  H           30.816170       31.795165       33.740503
  H           33.654449       34.963729       35.884537
  H           34.563937       34.321804       37.270056
  H           32.810573       34.527120       37.416544
  C           10.009225       14.640097       34.693638
  C            9.466692       13.242532       34.884081
  O           10.427555       12.414333       35.542739
  C           11.328904       11.809668       34.723868
  O           11.382511       11.906178       33.513863
  O           12.161826       11.070727       35.497695
  C           13.166699       10.370664       34.763570
  H           10.317056       15.069638       35.657814
  H            9.249824       15.294257       34.244321
  H           10.887929       14.639674       34.051628
  H            8.574967       13.275857       35.533015
  H            9.137869       12.805574       33.930120
  H           12.710268        9.657035       34.061143
  H           13.777482        9.809378       35.474205
  H           13.813283       11.072549       34.232829
  C           38.732138       17.533516       23.012372
  C           38.222162       16.606590       21.933237
  O           37.046049       17.142562       21.322917
  C           35.878580       16.838830       21.950103
  O           35.752752       16.165343       22.953539
  O           34.870336       17.419046       21.253399
  C           33.573755       17.178435       21.800925
  H           38.912729       18.538533       22.604662
  H           39.670277       17.154171       23.439563
  H           38.006396       17.642928       23.815881
  H           38.980278       16.511140       21.137279
  H           38.053316       15.591878       22.321762
  H           33.345447       16.101928       21.803774
  H           32.839304       17.683106       21.169270
  H           33.500845       17.589692       22.809861
  C           33.873589       16.515630       28.949874
  C           33.438485       15.137707       29.392380
  O           34.538421       14.417919       29.953670
  C           35.306066       13.742505       29.057492
  O           35.138509       13.695470       27.854989
  O           36.296693       13.121866       29.744562
  C           37.185587       12.364420       28.923013
  H           34.328398       17.064468       29.787027
  H           33.016998       17.092599       28.575896
  H           34.622773       16.460477       28.162485
  H           32.676227       15.226020       30.185200
  H           32.965205       14.582204       28.569870
  H           36.644452       11.561110       28.400648
  H           37.938446       11.907088       29.568886
  H           37.694215       13.013868       28.207530
  C           18.213459       36.413543       35.905988
  C           17.614185       36.964100       34.632584
  O           16.507879       36.164161       34.209283
  C           16.830230       35.092506       33.437114
  O           17.946197       34.768996       33.081783
  O           15.680446       34.444492       33.126188
  C           15.868819       33.289665       32.307842
  H           17.448059       36.337406       36.691651
  H           19.023499       37.061813       36.266655
  H           18.613558       35.412837       35.754964
  H           17.223144       37.979542       34.815244
  H           18.371784       37.062878       33.841770
  H           16.319301       33.565314       31.342397
  H           14.889261       32.846460       32.115140
  H           16.485874       32.550652       32.823111
  C           34.966289       25.813318       19.879793
  C           34.009548       26.578679       18.995107
  O           34.569093       27.839204       18.619624
  C           34.356058       28.852665       19.500597
  O           33.743439       28.781641       20.547475
  O           34.947004       29.966618       19.002107
  C           34.798997       31.121054       19.829253
  H           35.938390       25.689523       19.381200
  H           34.564866       24.819070       20.118183
  H           35.153163       26.342693       20.812070
  H           33.835424       26.015582       18.062368
  H           33.026193       26.695537       19.473079
  H           33.736523       31.381948       19.947928
  H           35.304715       31.956529       19.340037
  H           35.266040       30.958110       20.802762
  C           21.012403       16.221979       36.762440
  C           20.474637       17.546562       37.252430
  O           21.479820       18.559517       37.171633
  C           22.302913       18.645700       38.250378
  O           22.254942       17.958282       39.251104
  O           23.191207       19.642920       38.015668
  C           24.123705       19.850442       39.076884
  H           21.404724       16.318850       35.739895
  H           20.223993       15.457189       36.764986
  H           21.833637       15.873148       37.385490
  H           19.641328       17.870759       36.605984
  H           20.062192       17.461913       38.268217
  H           23.602749       20.135078       40.003484
  H           24.787013       20.669769       38.790833
  H           24.729752       18.956067       39.235632
  C           16.391583       25.293341       27.369240
  C           17.398010       24.577257       28.239946
  O           16.931594       24.498184       29.588725
  C           17.223574       25.574611       30.366318
  O           17.834456       26.567492       30.023813
  O           16.714364       25.344167       31.601713
  C           16.951678       26.400259       32.532923
  H           15.410504       24.800397       27.427463
  H           16.719373       25.300189       26.320904
  H           16.249125       26.322496       27.693040
  H           17.525251       23.540553       27.884344
  H           18.389695       25.048330       28.178696
  H           18.031149       26.550601       32.685039
  H           16.506859       26.116215       33.489247
  H           16.478702       27.324285       32.193997
  C           34.207599       22.533377       18.260991
  C           34.148161       21.248286       17.468017
  O           33.836254       21.514923       16.098850
  C           32.509621       21.597146       15.812698
  O           31.592505       21.461820       16.598118
  O           32.386432       21.854193       14.487046
  C           31.034504       21.963740       14.040851
  H           34.929373       23.231015       17.812390
  H           34.508284       22.336410       19.298918
  H           33.243241       23.037577       18.270799
  H           35.136549       20.758067       17.481168
  H           33.442872       20.532635       17.914687
  H           30.491395       21.021281       14.207598
  H           31.046421       22.167460       12.967792
  H           30.530513       22.792075       14.543100
  C           14.967998       15.695504       12.444031
  C           16.339788       16.249491       12.752399
  O           16.372699       17.662235       12.537756
  C           16.649208       18.047952       11.263643
  O           16.869779       17.315172       10.319883
  O           16.640321       19.403443       11.229485
  C           16.921754       19.952854        9.941952
  H           14.200555       16.210897       13.039262
  H           14.923071       14.621094       12.667919
  H           14.708285       15.841088       11.397296
  H           16.576849       16.082222       13.816929
  H           17.120962       15.731670       12.177308
  H           17.926708       19.658479        9.603703
  H           16.892621       21.041705       10.023525
  H           16.165780       19.641350        9.218164
  O           32.259668       37.422495       21.784274
  C           33.045304       37.732472       22.664950
  O           32.698874       38.022226       23.950496
  C           33.839874       38.563450       24.568797
  C           34.961194       37.973341       23.772672
  O           34.397074       37.844131       22.475878
  H           33.796733       39.654866       24.480205
  H           33.893051       38.290483       25.622913
  H           35.246706       36.982724       24.136210
  H           35.849451       38.614229       23.745071
  O           16.418310        4.334654       11.787542
  C           15.551899        3.489623       11.632127
  O           15.251722        2.891724       10.445110
  C           14.054033        2.180629       10.637425
  C           14.064105        1.903514       12.107971
  O           14.745723        3.030275       12.639390
  H           13.217973        2.824339       10.341550
  H           14.030392        1.266001       10.044638
  H           14.628055        0.999449       12.352159
  H           13.058191        1.824192       12.534989
  O           15.108139        4.860933        9.475419
  C           15.542287        5.557058        8.572189
  O           14.789504        6.088798        7.568611
  C           15.685392        6.603660        6.614986
  C           16.907547        6.892799        7.428703
  O           16.862967        5.892873        8.436056
  H           15.863894        5.833248        5.856367
  H           15.288873        7.497430        6.132858
  H           16.862622        7.876836        7.902678
  H           17.834615        6.816342        6.849738
  O           19.642599       29.332589       28.502443
  C           20.393265       28.939984       27.624228
  O           20.976620       29.736586       26.685227
  C           21.552772       28.883799       25.727155
  C           21.803481       27.630397       26.505312
  O           20.746457       27.627868       27.453623
  H           20.829076       28.732981       24.918194
  H           22.469978       29.304657       25.314709
  H           22.757975       27.660698       27.037311
  H           21.767818       26.727811       25.885178
  O           13.095456       26.514145        3.472951
  C           12.622885       27.603702        3.192878
  O           11.292148       27.896429        3.185771
  C           11.154599       29.157137        2.578486
  C           12.483325       29.796307        2.834119
  O           13.374091       28.690355        2.831802
  H           10.964116       29.007583        1.509725
  H           10.332160       29.725055        3.013874
  H           12.524041       30.283220        3.812003
  H           12.765102       30.520468        2.061660
  O           20.568017       10.019956        7.141892
  C           20.637896       11.213984        7.383373
  O           21.263441       11.753703        8.466884
  C           20.907610       13.113390        8.508545
  C           20.591697       13.418597        7.078004
  O           20.080250       12.185030        6.594956
  H           20.032974       13.222497        9.159703
  H           21.720617       13.729695        8.892848
  H           21.485850       13.680703        6.506347
  H           19.848219       14.215440        6.964953
  O           29.718129        8.490954        8.691641
  C           30.208137        8.848504        9.750390
  O           29.669747        9.785607       10.580194
  C           30.646231       10.084470       11.546765
  C           31.470643        8.836123       11.583863
  O           31.386079        8.359221       10.248943
  H           31.220582       10.951704       11.201909
  H           30.197527       10.312339       12.513843
  H           31.049137        8.084868       12.256877
  H           32.514097        9.020980       11.862309
  O           26.806979       31.893692       32.319815
  C           27.574913       32.743978       32.739566
  O           28.906464       32.551811       32.955538
  C           29.371607       33.674461       33.662927
  C           28.401209       34.742648       33.267067
  O           27.196073       34.018953       33.065786
  H           29.328618       33.450422       34.734775
  H           30.396650       33.925219       33.389236
  H           28.684509       35.228686       32.329780
  H           28.267779       35.507060       34.040612
  O           30.596663       22.790061       33.641084
  C           31.218506       22.140815       34.466124
  O           31.674186       22.625463       35.655271
  C           32.538551       21.652921       36.188314
  C           32.041039       20.387357       35.563631
  O           31.557309       20.824094       34.301940
  H           33.562368       21.893746       35.880574
  H           32.488107       21.624116       37.276949
  H           31.214657       19.947439       36.128046
  H           32.827748       19.635466       35.436157
  O           29.849158        9.230809       29.409092
  C           30.949174        9.758162       29.381460
  O           32.092260        9.152431       28.953623
  C           33.159379        9.995713       29.310318
  C           32.511994       11.343473       29.372264
  O           31.189489       11.042146       29.792720
  H           33.543830        9.674157       30.284843
  H           33.964379        9.957222       28.576155
  H           32.471946       11.825823       28.392093
  H           32.998783       12.019291       30.084167
  O           21.704683       29.497017       15.596412
  C           22.505582       28.682639       15.167170
  O           22.192793       27.416225       14.773519
  C           23.408402       26.734554       14.587186
  C           24.367670       27.842098       14.282966
  O           23.845807       28.929750       15.032147
  H           23.658377       26.212060       15.517461
  H           23.342308       26.010280       13.775053
  H           24.365997       28.107839       13.222598
  H           25.393798       27.616402       14.593807
  O           10.968503       26.121110       30.487049
  C           12.008289       25.992087       31.112428
  O           12.554594       24.798114       31.476543
  C           13.593832       25.083073       32.379806
  C           13.991305       26.475222       32.001208
  O           12.770665       27.042704       31.548877
  H           13.192344       25.027874       33.397971
  H           14.417871       24.376342       32.279853
  H           14.714281       26.487825       31.181363
  H           14.394867       27.048555       32.843186
  O            7.686849       36.232635        3.589519
  C            8.276180       36.854139        4.458611
  O            9.009333       37.983001        4.247053
  C            9.715680       38.239849        5.435415
  C            8.862636       37.586905        6.477230
  O            8.290780       36.490595        5.778884
  H           10.705054       37.775151        5.357337
  H            9.834003       39.309589        5.609068
  H            8.061062       38.244528        6.823657
  H            9.436988       37.236424        7.341974
  O           12.654707       18.403420       26.533646
  C           12.898721       17.923342       27.628581
  O           13.066934       18.642275       28.773762
  C           13.570748       17.755908       29.742072
  C           13.073340       16.426772       29.267327
  O           13.050204       16.581371       27.855887
  H           14.664804       17.817898       29.732204
  H           13.206075       18.001386       30.739697
  H           12.059422       16.217850       29.618499
  H           13.729466       15.597446       29.554061
  O           26.384512       34.489592       23.626799
  C           27.464407       33.952424       23.811667
  O           27.636953       32.634828       24.112945
  C           28.982728       32.474414       24.487452
  C           29.662560       33.602281       23.776718
  O           28.663553       34.611237       23.752393
  H           29.052271       32.567757       25.577109
  H           29.370590       31.501542       24.184823
  H           29.927990       33.340299       22.749142
  H           30.558074       33.958300       24.298067
  O            0.996661       24.547297       21.931762
  C            1.583524       23.544362       21.559455
  O            2.898576       23.278541       21.797317
  C            3.241119       22.169671       21.003483
  C            1.929412       21.472666       20.821797
  O            0.996170       22.542963       20.833015
  H            3.651818       22.536030       20.055851
  H            3.980699       21.537132       21.494823
  H            1.704688       20.796664       21.650965
  H            1.867629       20.916568       19.879759
  O           37.010552       31.118511       10.830355
  C           37.762987       30.352561       10.250647
  O           38.486231       30.664514        9.138800
  C           39.018724       29.459765        8.646733
  C           39.081159       28.599570        9.869667
  O           37.976442       29.055979       10.636408
  H           38.331650       29.060251        7.892267
  H           40.000006       29.608934        8.195807
  H           40.000005       28.761020       10.439452
  H           38.981256       27.531493        9.646664
  O           26.930592       22.655816       23.133651
  C           27.052502       21.557473       22.616274
  O           28.197998       20.819611       22.616802
  C           27.998658       19.755433       21.719647
  C           26.511207       19.591491       21.723181
  O           26.045849       20.914438       21.946456
  H           28.381459       20.054509       20.737345
  H           28.514764       18.852512       22.046556
  H           26.169973       18.952008       22.541485
  H           26.121975       19.200003       20.776748
  O            7.529603       12.685567        4.335703
  C            7.262736       13.839604        4.042652
  O            6.281004       14.583536        4.625205
  C            6.134429       15.746349        3.848364
  C            7.481058       15.893601        3.212512
  O            7.913679       14.548720        3.068522
  H            5.343216       15.572177        3.110430
  H            5.870365       16.608272        4.461437
  H            8.184573       16.425921        3.858037
  H            7.441416       16.392737        2.237939
  O           13.006776        8.613568       30.647325
  C           12.801834        9.811983       30.750770
  O           13.769853       10.770866       30.741573
  C           13.155863       11.974690       31.130063
  C           11.727779       11.761832       30.736785
  O           11.557029       10.362001       30.903870
  H           13.275792       12.090625       32.213149
  H           13.599941       12.833068       30.625603
  H           11.546837       12.019347       29.689911
  H           11.023456       12.314669       31.368290
  O           29.158862       16.966659        5.821834
  C           28.323377       16.389693        6.498571
  O           27.420844       17.005417        7.312769
  C           26.819321       15.999748        8.089879
  C           26.969252       14.782417        7.232542
  O           28.185244       15.027861        6.541366
  H           27.371053       15.914453        9.032861
  H           25.775122       16.228342        8.304109
  H           26.159143       14.689999        6.504406
  H           27.035772       13.855853        7.813536
  O            6.373657       23.386311        1.866772
  C            6.393276       23.736466        3.035492
  O            5.300747       23.801067        3.847161
  C            5.698824       24.475828        5.014780
  C            7.170682       24.210649        5.066868
  O            7.527840       24.128149        3.694923
  H            5.472535       25.541141        4.893121
  H            5.179115       24.096466        5.894829
  H            7.399940       23.258015        5.551562
  H            7.731698       25.009549        5.564382
  O           34.010338       30.978037       29.045989
  C           34.838010       31.665873       28.470888
  O           36.026897       31.210304       27.985497
  C           36.782042       32.341096       27.627492
  C           35.730535       33.368694       27.348613
  O           34.687990       33.007869       28.242764
  H           37.417150       32.616348       28.477065
  H           37.410027       32.145834       26.758006
  H           35.356574       33.306545       26.323288
  H           36.070061       34.391871       27.544396
  O           27.886054       10.477925       19.167694
  C           27.570369        9.998144       18.091100
  O           28.390463        9.248308       17.302563
  C           27.744229        9.103935       16.062144
  C           26.299380        9.258644       16.419745
  O           26.337816       10.159882       17.516510
  H           28.094616        9.899292       15.394660
  H           27.956450        8.135336       15.609067
  H           25.854284        8.316298       16.749703
  H           25.698344        9.671403       15.601891
  O           39.097079        0.999195       22.228265
  C           38.508465        2.005849       21.868987
  O           39.055976        3.252689       21.821846
  C           37.999920        4.154309       21.600649
  C           36.978550        3.307129       20.908919
  O           37.198262        2.021550       21.470712
  H           37.647790        4.519936       22.571844
  H           38.315869        5.001154       20.991117
  H           37.148186        3.257138       19.830159
  H           35.951017        3.639043       21.094688
  O           11.712936        7.345161       25.290658
  C           11.048664        8.337515       25.541409
  O           11.142371        9.067628       26.688037
  C           10.055387        9.959551       26.694189
  C            9.746213       10.117288       25.238534
  O           10.098850        8.851739       24.699430
  H            9.230235        9.495806       27.246425
  H           10.315958       10.906976       27.166404
  H           10.362686       10.887969       24.768415
  H            8.690115       10.337614       25.047192
  O           12.649316       12.287675       23.170588
  C           12.091144       12.299260       22.085594
  O           11.770756       11.189283       21.363168
  C           11.376388       11.631724       20.088091
  C           10.896127       13.024073       20.352885
  O           11.716883       13.443680       21.433112
  H           12.251635       11.612320       19.428951
  H           10.595471       10.998245       19.666933
  H            9.850806       13.044726       20.672065
  H           11.020762       13.690294       19.492005
  O           10.426459       30.862243       14.025624
  C           10.551402       30.122849       13.063031
  O            9.862494       30.244160       11.893719
  C           10.106469       29.074297       11.152776
  C           11.430843       28.617446       11.678818
  O           11.402679       29.050563       13.030933
  H            9.305396       28.357110       11.364492
  H           10.134372       29.275765       10.081733
  H           12.266087       29.103170       11.167506
  H           11.560809       27.530879       11.624215
  O            7.748624       33.125053       39.447773
  C            7.115333       33.249845       38.412269
  O            7.077772       34.381576       37.654394
  C            6.058549       34.201967       36.702541
  C            5.984313       32.713102       36.571508
  O            6.337433       32.261383       37.870683
  H            5.132490       34.630692       37.101927
  H            6.301261       34.688446       35.757591
  H            6.710625       32.326985       35.851519
  H            4.984874       32.357320       36.297571
  O           25.890620       30.516890        3.173933
  C           25.204385       30.338287        4.166950
  O           24.864332       31.307113        5.062684
  C           24.291692       30.656666        6.169979
  C           23.765905       29.388065        5.575337
  O           24.686219       29.122783        4.526887
  H           25.079468       30.473757        6.909475
  H           23.504005       31.257214        6.625380
  H           22.768024       29.516941        5.147990
  H           23.744834       28.557594        6.289741
  O           15.360822       34.546281        3.347564
  C           16.502974       34.128315        3.446018
  O           17.538430       34.816685        4.003311
  C           18.712290       34.104258        3.700657
  C           18.213848       32.705646        3.514002
  O           16.906962       32.900427        2.993706
  H           19.141404       34.518665        2.781403
  H           19.445299       34.178005        4.504249
  H           18.142138       32.164841        4.461308
  H           18.824806       32.123746        2.814986
  O           19.013654       29.278316        1.035004
  C           20.045774       28.686479        1.305851
  O           20.300652       27.384321        0.995977
  C           21.469214       27.020968        1.688462
  C           22.170022       28.330847        1.868698
  O           21.096301       29.253929        1.976594
  H           21.179132       26.569894        2.644121
  H           22.066748       26.307169        1.121061
  H           22.779058       28.594275        0.999974
  H           22.796331       28.360567        2.767227
  O           33.754311       39.327609       15.707099
  C           33.102512       38.303217       15.585946
  O           33.615997       37.042441       15.644059
  C           32.601552       36.168209       15.215432
  C           31.351897       36.929224       15.529465
  O           31.751867       38.281301       15.360608
  H           32.724289       35.996279       14.140130
  H           32.646555       35.213203       15.739301
  H           31.028876       36.780750       16.563202
  H           30.522262       36.685244       14.856650
  O           27.334095        3.507742       21.523632
  C           26.940098        3.524568       20.368910
  O           27.454166        4.311465       19.382438
  C           26.577555        4.217996       18.287031
  C           25.931838        2.883450       18.490592
  O           25.907445        2.754176       19.904556
  H           25.857509        5.041790       18.348653
  H           27.111949        4.278236       17.338720
  H           26.528150        2.069667       18.069679
  H           24.916957        2.832578       18.080799
  O           15.810809        6.836401       10.529217
  C           14.835783        7.361924       10.017308
  O           13.605757        7.451465       10.596634
  C           12.716527        7.892779        9.600837
  C           13.613165        8.632042        8.658005
  O           14.842150        7.929603        8.771033
  H           12.256106        7.014684        9.134080
  H           11.935264        8.530933       10.014223
  H           13.767409        9.669621        8.965637
  H           13.252725        8.615231        7.623451
  O           26.529315       36.854071       13.789263
  C           25.785795       36.201137       14.503234
  O           24.868164       35.299792       14.053643
  C           24.059714       34.957673       15.152034
  C           24.958797       35.215865       16.320104
  O           25.764033       36.295210       15.869315
  H           23.180510       35.611814       15.151763
  H           23.734168       33.918395       15.102830
  H           25.602514       34.360267       16.540513
  H           24.411574       35.495201       17.227307
  O            5.028846       25.688776       34.267943
  C            3.810871       25.620695       34.296291
  O            3.025233       25.283080       33.235448
  C            1.697532       25.560771       33.605851
  C            1.740453       25.459871       35.098291
  O            3.058110       25.889056       35.408421
  H            1.447205       26.571635       33.264692
  H            0.999974       24.849334       33.163392
  H            1.611105       24.431162       35.444741
  H            1.000075       26.099455       35.591518
  O           15.084698       16.808245       16.011970
  C           13.892556       17.053864       16.097811
  O           13.048889       17.196587       15.037407
  C           11.842019       17.712024       15.542272
  C           11.851517       17.248267       16.965029
  O           13.234861       17.233319       17.285554
  H           11.871340       18.804473       15.461058
  H           10.981540       17.333772       14.990003
  H           11.451485       16.236396       17.070344
  H           11.306771       17.920316       17.637415
  O           16.649631        1.279823       31.817851
  C           17.836817        1.472270       31.611807
  O           18.841176        1.124861       32.464550
  C           20.014142        1.732744       31.983168
  C           19.732710        1.887956       30.521626
  O           18.326321        2.081575       30.487248
  H           20.135960        2.697882       32.487716
  H           20.892785        1.115512       32.171613
  H           19.980982        0.985439       29.956981
  H           20.251151        2.743620       30.074908
  O           25.273619        3.465429       23.844484
  C           25.844406        4.489060       24.184016
  O           26.108067        4.842256       25.473331
  C           26.542747        6.179266       25.449726
  C           27.100245        6.323515       24.068499
  O           26.292558        5.439208       23.305450
  H           25.675777        6.828119       25.617810
  H           27.290332        6.372165       26.219406
  H           28.141113        5.994830       24.008820
  H           27.024966        7.345864       23.681672
  O           32.752580       35.139281        2.325173
  C           33.813944       34.540702        2.389287
  O           35.021645       35.056441        2.025871
  C           35.935290       33.987694        2.014354
  C           35.328713       33.021008        2.982333
  O           33.935525       33.249577        2.829416
  H           35.981866       33.583081        0.996995
  H           36.931718       34.307850        2.319527
  H           35.613394       33.239773        4.014854
  H           35.575783       31.977766        2.756274
  O           31.499603        6.808144       38.764796
  C           30.917059        5.764612       38.518658
  O           29.976494        5.190464       39.320088
  C           29.739868        3.900663       38.812622
  C           30.108496        4.038398       37.368827
  O           31.140579        5.013430       37.395598
  H           30.390486        3.195590       39.342215
  H           28.700422        3.600670       38.946998
  H           29.278121        4.416472       36.766716
  H           30.472491        3.103034       36.929393
  O            5.885166       27.149241        7.580409
  C            6.015411       28.254119        7.079230
  O            7.199923       28.914699        6.948213
  C            6.892775       30.230708        6.559779
  C            5.567306       30.076879        5.882381
  O            4.974655       28.994432        6.584999
  H            6.829568       30.851650        7.460520
  H            7.652289       30.640455        5.893636
  H            5.673008       29.801780        4.829695
  H            4.942403       30.973782        5.956961
  O           13.288465       26.729757       28.451152
  C           13.383973       25.528461       28.642637
  O           12.954457       24.566011       27.779037
  C           13.018106       23.341685       28.467568
  C           14.077414       23.592170       29.494468
  O           13.931756       24.977533       29.770427
  H           12.038863       23.147405       28.919495
  H           13.275480       22.518700       27.800519
  H           15.081552       23.411795       29.101820
  H           13.937803       23.000302       30.405896
  O           21.847250       34.165928       32.534461
  C           21.073509       34.924074       31.972820
  O           19.786234       34.620425       31.645223
  C           19.325112       35.649317       30.805075
  C           20.179247       36.811817       31.203131
  O           21.401279       36.194427       31.580048
  H           19.492155       35.347806       29.764841
  H           18.263432       35.845633       30.956062
  H           19.770666       37.346272       32.064768
  H           20.342062       37.522583       30.385327
  O            3.274768        8.889845        4.094008
  C            4.092140        9.786941        3.967431
  O            3.876521       11.089612        4.303815
  C            4.951053       11.829880        3.779904
  C            6.048890       10.815665        3.705599
  O            5.348403        9.606510        3.452892
  H            4.663730       12.204504        2.790964
  H            5.209320       12.672233        4.421965
  H            6.587730       10.722905        4.652197
  H            6.766783       11.020668        2.903661
  O           31.418546       18.700443       33.745355
  C           32.326188       17.907025       33.556745
  O           32.257454       16.828598       32.726762
  C           33.398087       16.045964       32.978833
  C           34.378706       17.046714       33.504461
  O           33.548098       17.986797       34.169993
  H           33.138808       15.286590       33.725175
  H           33.755042       15.553298       32.074198
  H           34.917859       17.555289       32.700927
  H           35.102997       16.610347       34.201231
  O           35.824595        8.672214       29.612840
  C           36.601136        7.828559       29.195550
  O           36.301458        6.894816       28.249550
  C           37.364326        5.974412       28.233168
  C           38.514635        6.785469       28.741475
  O           37.891420        7.696336       29.635077
  H           37.113393        5.143933       28.902674
  H           37.543683        5.585842       27.230499
  H           39.004411        7.349613       27.943440
  H           39.264373        6.182456       29.265659
  O           14.240968       34.079552        6.880863
  C           13.167105       33.666741        6.474288
  O           12.298694       32.909053        7.201180
  C           11.318694       32.441083        6.308038
  C           11.333913       33.474698        5.225998
  O           12.688191       33.901737        5.212972
  H           11.625149       31.453900        5.944093
  H           10.343421       32.359936        6.788411
  H           10.694393       34.328692        5.464130
  H           11.046192       33.073823        4.247726
  O           29.119703       20.956890        2.507884
  C           29.347933       22.097892        2.875205
  O           28.422603       23.096314        2.934516
  C           29.126263       24.292227        3.162015
  C           30.371859       23.820702        3.844331
  O           30.582590       22.538557        3.271357
  H           29.334837       24.760706        2.193550
  H           28.553259       24.984066        3.779692
  H           30.232871       23.709347        4.922887
  H           31.233231       24.472228        3.659797
  O           33.870788       23.225753        5.928685
  C           33.560866       23.976115        6.839621
  O           33.305746       25.307187        6.699047
  C           33.233864       25.848271        7.994871
  C           32.832869       24.669960        8.825647
  O           33.437320       23.580159        8.144786
  H           34.224635       26.230053        8.266006
  H           32.508323       26.659989        8.051468
  H           31.749466       24.524696        8.837317
  H           33.197057       24.730385        9.857256
  O           26.398656       13.242716       22.051930
  C           27.385947       13.265473       22.768616
  O           28.672940       13.257930       22.321189
  C           29.493677       13.040951       23.442086
  C           28.659210       13.559592       24.570836
  O           27.334195       13.290073       24.136906
  H           29.685868       11.965457       23.527377
  H           30.442996       13.569508       23.353090
  H           28.776068       14.637943       24.706860
  H           28.864310       13.054602       25.521319
  O            7.352083        9.752381        9.954803
  C            7.732682        9.104897        8.993134
  O            8.683441        9.513423        8.106701
  C            8.651634        8.610895        7.028958
  C            8.103812        7.366175        7.653429
  O            7.241684        7.869744        8.663258
  H            7.986956        9.016100        6.257652
  H            9.643792        8.457861        6.603866
  H            8.885687        6.762904        8.122187
  H            7.546378        6.742476        6.945781
  O           18.630958        7.462828       11.545771
  C           18.985285        6.312749       11.344099
  O           18.430210        5.213583       11.927471
  C           19.269957        4.125625       11.630365
  C           19.935408        4.555936       10.360953
  O           20.009135        5.966973       10.502867
  H           19.983488        4.004312       12.453200
  H           18.703063        3.202565       11.507518
  H           19.333220        4.318457        9.480060
  H           20.936225        4.127730       10.236433
  O           28.213443       28.795325       29.876304
  C           27.034321       28.489470       29.947192
  O           26.480071       27.386903       29.369478
  C           25.085041       27.529287       29.473002
  C           24.928996       28.417743       30.667027
  O           26.094125       29.227921       30.615189
  H           24.715938       27.999100       28.554340
  H           24.591911       26.566302       29.607103
  H           24.930464       27.852809       31.602894
  H           24.026094       29.036957       30.624115
  O            7.264460       20.697054       13.497144
  C            8.267097       21.391462       13.534798
  O            9.302596       21.311944       12.652745
  C           10.348829       22.089373       13.180099
  C            9.627017       23.080599       14.037921
  O            8.496078       22.348618       14.487121
  H           11.005879       21.435044       13.764085
  H           10.928824       22.569859       12.391913
  H            9.285058       23.947226       13.466061
  H           10.225609       23.426246       14.888048
  O            8.656889        3.096127       13.730487
  C            8.725049        4.005897       14.540778
  O            9.807619        4.270549       15.324744
  C            9.399573        5.221234       16.277002
  C            8.265453        5.914792       15.589869
  O            7.706160        4.888107       14.783824
  H            9.076435        4.690392       17.179603
  H           10.208409        5.905837       16.533131
  H            8.610647        6.725793       14.943248
  H            7.518147        6.307333       16.288401
  O            8.839421        4.508242       33.955005
  C            7.640741        4.701469       33.833635
  O            6.712881        3.726774       33.619991
  C            5.508287        4.374273       33.293190
  C            5.659653        5.710098       33.950503
  O            7.059370        5.940389       33.884479
  H            5.442579        4.453029       32.202145
  H            4.643322        3.825615       33.666433
  H            5.352085        5.689487       34.999301
  H            5.112726        6.505841       33.432657
  O           34.298044       19.834336       31.329676
  C           35.305431       20.522846       31.334666
  O           36.522579       20.124861       30.869093
  C           37.453558       21.096243       31.277500
  C           36.610639       22.323986       31.424243
  O           35.353103       21.800427       31.825598
  H           37.891887       20.776830       32.229730
  H           38.247761       21.225652       30.541976
  H           36.488394       22.854521       30.476303
  H           36.996825       23.020281       32.176927
  O           28.117333       31.389092       13.723605
  C           27.687677       30.851065       14.730989
  O           26.952738       29.703812       14.747642
  C           26.451584       29.558825       16.053369
  C           27.447609       30.312459       16.877608
  O           27.877957       31.339385       15.996231
  H           25.453437       30.009412       16.093044
  H           26.384037       28.510123       16.343476
  H           28.307356       29.694701       17.150022
  H           27.012645       30.741587       17.787089
  O           31.995757       15.127469       23.242721
  C           32.836525       14.245689       23.309597
  O           34.135564       14.377631       22.920125
  C           34.696190       13.088143       22.924587
  C           33.850762       12.361253       23.922725
  O           32.582902       12.984731       23.779874
  H           34.604133       12.667196       21.917001
  H           35.747983       13.108491       23.210626
  H           34.205424       12.507823       24.946313
  H           33.777714       11.287059       23.719569
  O           16.693902       25.805279        5.169227
  C           16.106776       25.161460        4.315013
  O           14.760231       25.188320        4.108388
  C           14.462427       24.139868        3.220040
  C           15.748410       23.958318        2.476611
  O           16.727440       24.305047        3.445052
  H           14.193293       23.254600        3.807209
  H           13.635167       24.397007        2.558209
  H           15.831972       24.640870        1.626822
  H           15.898582       22.930950        2.126662
  O           19.203216        9.957253       25.564898
  C           20.362867        9.713057       25.855550
  O           21.328952       10.652355       26.058029
  C           22.555956        9.968726       26.122934
  C           22.151449        8.601575       26.577548
  O           20.859906        8.446092       26.008039
  H           23.000221        9.959069       25.121218
  H           23.246360       10.447794       26.817438
  H           22.069923        8.537502       27.665779
  H           22.827091        7.815563       26.222312
  O           29.256334       13.395579       11.176091
  C           30.358685       13.519784       10.667862
  O           31.538684       13.244871       11.291259
  C           32.562038       13.747818       10.468524
  C           31.934659       13.732183        9.110013
  O           30.562830       13.969020        9.390360
  H           32.806650       14.762749       10.801658
  H           33.457644       13.128135       10.517330
  H           32.034705       12.759085        8.622087
  H           32.332513       14.507954        8.446393
  O           13.030316       21.923058       34.114142
  C           12.370184       21.350726       33.262343
  O           12.743124       21.198276       31.960700
  C           11.618927       20.715579       31.267675
  C           10.837914       20.024518       32.340920
  O           11.144586       20.787270       33.498832
  H           11.078864       21.570732       30.845840
  H           11.903869       20.038081       30.462501
  H           11.172255       18.995170       32.494736
  H            9.758563       20.025924       32.152506
  O           13.417112       32.732679       27.933825
  C           13.575327       31.630498       27.434761
  O           14.715417       31.212201       26.816842
  C           14.409497       30.000658       26.172112
  C           13.265573       29.473408       26.980100
  O           12.612858       30.656411       27.417212
  H           14.120979       30.221923       25.138333
  H           15.261697       29.320770       26.169490
  H           13.604282       28.910898       27.854090
  H           12.581289       28.848580       26.395426
  O           10.518858        9.572622       34.235197
  C           10.061970        9.528305       33.104627
  O            9.674115        8.388908       32.465923
  C            9.447435        8.731551       31.121188
  C            9.116940       10.188913       31.200364
  O            9.885757       10.629665       32.309985
  H           10.367657        8.544190       30.556397
  H            8.635369        8.146474       30.689062
  H            8.058039       10.359503       31.411620
  H            9.394656       10.740089       30.295059
  O           29.952969       36.652641        6.564504
  C           29.114664       35.770471        6.653507
  O           27.767363       35.973876        6.651120
  C           27.169760       34.755250        7.018439
  C           28.192809       33.744777        6.604052
  O           29.417705       34.441060        6.781307
  H           27.007584       34.762065        8.102207
  H           26.214976       34.607821        6.513313
  H           28.092058       33.465271        5.552041
  H           28.171742       32.838131        7.218909
  O           25.714171       14.234106        2.126897
  C           26.414263       13.247183        2.284229
  O           27.705822       13.270101        2.717764
  C           28.223869       11.977032        2.526191
  C           26.999124       11.118222        2.569123
  O           25.995852       11.967769        2.032173
  H           28.720426       11.944228        1.549843
  H           28.941462       11.712700        3.303165
  H           26.723886       10.845379        3.591278
  H           27.094872       10.206680        1.968770
  O            8.137002       39.319960       16.321682
  C            6.950027       39.100886       16.500560
  O            6.289171       39.304602       17.674600
  C            5.024284       38.705284       17.540518
  C            4.799328       38.730452       16.061274
  O            6.113126       38.603352       15.537462
  H            5.081389       37.684443       17.934883
  H            4.258214       39.258160       18.084544
  H            4.373593       39.679918       15.726217
  H            4.163291       37.909704       15.711517
  O           23.616969        1.682020        6.697363
  C           23.343432        1.913146        5.530890
  O           23.550053        3.105390        4.904421
  C           22.883135        3.038169        3.668379
  C           22.850243        1.568656        3.387577
  O           22.773836        0.998305        4.685831
  H           21.879447        3.459978        3.793231
  H           23.413101        3.594920        2.895291
  H           23.765766        1.222475        2.900775
  H           21.987551        1.268182        2.782617
  O           31.412015        5.611412       12.935539
  C           30.193133        5.668097       12.931807
  O           29.466438        6.808809       13.097005
  C           28.127884        6.417755       13.277145
  C           28.071041        5.094878       12.579890
  O           29.379856        4.578052       12.770925
  H           27.934744        6.329515       14.352231
  H           27.436405        7.142115       12.846264
  H           27.884566        5.202651       11.508156
  H           27.322689        4.418188       13.007160
  O           22.775762       15.144706       30.106459
  C           22.222156       14.242679       30.713723
  O           20.892177       13.955922       30.639377
  C           20.616788       13.028350       31.659608
  C           21.939452       12.359952       31.867463
  O           22.867904       13.393041       31.571990
  H           20.285141       13.578578       32.547392
  H           19.839737       12.323694       31.362705
  H           22.095697       11.531994       31.170991
  H           22.078839       11.997132       32.891881
  O           28.912772       22.274793       10.630475
  C           29.119677       23.445770       10.904158
  O           29.940936       23.878670       11.901521
  C           29.713354       25.258482       12.047890
  C           29.219241       25.659686       10.693532
  O           28.538462       24.496626       10.245835
  H           28.955927       25.403697       12.826425
  H           30.623777       25.788052       12.329288
  H           30.039465       25.878469       10.004788
  H           28.538583       26.517764       10.723646
  O           11.097610       31.233413       10.364064
  C           12.070712       30.917174        9.699259
  O           13.331942       30.761349       10.190806
  C           14.190198       30.643607        9.083271
  C           13.285401       30.112454        8.016210
  O           12.029345       30.684560        8.350305
  H           14.580130       31.638485        8.840229
  H           15.023547       29.972003        9.290582
  H           13.200840       29.023206        8.053478
  H           13.590689       30.413494        7.007907
  O            1.073873        6.726405       10.870798
  C            1.808856        7.700008       10.842582
  O            1.402341        8.987718       11.024644
  C            2.486174        9.811651       10.673158
  C            3.667992        8.922968       10.903263
  O            3.156618        7.631132       10.609568
  H            2.378189       10.095190        9.620141
  H            2.521008       10.712623       11.285968
  H            4.002291        8.944595       11.943829
  H            4.515077        9.160413       10.250143
  O           27.449496       25.188019        6.028595
  C           26.379480       24.989220        5.476830
  O           26.187338       24.128464        4.438186
  C           24.896164       24.373513        3.938266
  C           24.181869       24.939923        5.125011
  O           25.214502       25.620548        5.822879
  H           24.974118       25.094761        3.116911
  H           24.427668       23.460201        3.571014
  H           23.772533       24.158168        5.770227
  H           23.379592       25.633676        4.850133
  O           25.610283        4.023588       30.617479
  C           24.619104        4.698157       30.844241
  O           23.589561        4.321409       31.653377
  C           22.552234        5.249295       31.453171
  C           23.283555        6.472606       30.997013
  O           24.398464        5.935553       30.300486
  H           21.879672        4.855690       30.682694
  H           21.986707        5.423221       32.368829
  H           23.644524        7.072772       31.836359
  H           22.683985        7.107165       30.334933
  O            7.655557       20.007967        2.770132
  C            8.552235       20.823940        2.908181
  O            9.880223       20.551989        2.770013
  C           10.578843       21.675036        3.247294
  C            9.594342       22.785585        3.055357
  O            8.343994       22.137132        3.236299
  H           10.818647       21.510228        4.303813
  H           11.501774       21.840141        2.691022
  H            9.635800       23.201837        2.045399
  H            9.717376       23.596353        3.782006
  O           33.591979       35.854032       26.008732
  C           32.900681       36.622042       26.657706
  O           32.980538       36.790022       28.007522
  C           31.868047       37.560361       28.389677
  C           31.544886       38.320098       27.141572
  O           31.930776       37.420620       26.112675
  H           31.060412       36.880257       28.683079
  H           32.103938       38.219499       29.225376
  H           32.135513       39.235692       27.052992
  H           30.481578       38.570423       27.056644
  O           21.580648       35.334821       34.529723
  C           21.105410       34.229602       34.733539
  O           21.821357       33.130231       35.101511
  C           20.958504       32.025455       34.991713
  C           19.605605       32.641621       35.163188
  O           19.773417       33.937497       34.607179
  H           21.089893       31.580987       33.998695
  H           21.169730       31.273729       35.752496
  H           19.329045       32.739931       36.216207
  H           18.816583       32.094409       34.635452
  O            6.858441        5.336715       22.866305
  C            6.950404        4.124142       22.765760
  O            6.079760        3.229535       23.311889
  C            6.665984        1.958045       23.182446
  C            7.569837        2.127047       22.001815
  O            7.959880        3.489507       22.092191
  H            7.220045        1.737128       24.101746
  H            5.915245        1.184245       23.020811
  H            7.044624        1.969852       21.056066
  H            8.446898        1.471309       22.037485
  O           23.762361       36.476048       23.383363
  C           22.664731       36.969954       23.583776
  O           22.411462       38.307630       23.639251
  C           21.101711       38.455283       24.128996
  C           20.452464       37.165302       23.736786
  O           21.526521       36.238116       23.794469
  H           21.150995       38.581964       25.216388
  H           20.603425       39.319327       23.688952
  H           20.063013       37.194760       22.715777
  H           19.648040       36.866993       24.418265
  O           39.749755       12.257332       33.666247
  C           39.563220       13.050205       32.757700
  O           38.923023       12.759954       31.590437
  C           39.135085       13.848997       30.726658
  C           39.366419       14.984499       31.673506
  O           39.987423       14.352092       32.783018
  H           40.015836       13.635679       30.110483
  H           38.275835       14.020303       30.077933
  H           38.430026       15.441882       32.003612
  H           40.017483       15.761704       31.258095
  O           33.761406       27.245623       32.356563
  C           34.126803       28.409831       32.354215
  O           34.766968       29.026826       33.386739
  C           34.788410       30.401298       33.090989
  C           34.706123       30.421448       31.596926
  O           33.930312       29.268298       31.305441
  H           33.916889       30.870248       33.561561
  H           35.696358       30.877681       33.461379
  H           35.688698       30.316031       31.129558
  H           34.219407       31.322601       31.207658
  O           27.871769       29.168923       38.598173
  C           28.139214       30.346796       38.425005
  O           29.400129       30.862272       38.393762
  C           29.269913       32.262004       38.423681
  C           27.910054       32.482198       37.839132
  O           27.196658       31.324452       38.248144
  H           29.332661       32.593263       39.466385
  H           30.053132       32.750696       37.843814
  H           27.932923       32.517962       36.746796
  H           27.423962       33.388587       38.216854
  O           34.203496        8.863666       22.607094
  C           35.275895        9.392261       22.363273
  O           36.397031        8.729691       21.962455
  C           37.459944        9.647718       22.029846
  C           36.770937       10.966658       21.871520
  O           35.504524       10.738146       22.472003
  H           37.943482        9.546219       23.008002
  H           38.195462        9.468834       21.245300
  H           36.623591       11.230073       20.820852
  H           37.295031       11.786072       22.375887
  O           28.991529       31.178124        3.993069
  C           29.786533       30.269656        4.170710
  O           31.004845       30.172517        3.568314
  C           31.493272       28.882386        3.840526
  C           30.795797       28.524698        5.115276
  O           29.554712       29.205266        5.000669
  H           31.209623       28.223033        3.012457
  H           32.578166       28.878019        3.947703
  H           31.326974       28.900019        5.993903
  H           30.635875       27.446547        5.227154
  O           25.967607        7.558973       19.911236
  C           25.206512        8.511924       19.872255
  O           25.590389        9.808280       19.702845
  C           24.461783       10.605650       19.962746
  C           23.324525        9.681672       19.658920
  O           23.847616        8.408140       20.006901
  H           24.484325       10.904352       21.016866
  H           24.447795       11.498092       19.336765
  H           23.067206        9.681820       18.596476
  H           22.425592        9.902956       20.244969
  O           35.632784       29.380322       10.520152
  C           34.473925       29.080035       10.756319
  O           33.408039       29.916349       10.611179
  C           32.306826       29.282697       11.213603
  C           32.666721       27.832976       11.123140
  O           34.083634       27.850514       11.216156
  H           32.233184       29.628673       12.250800
  H           31.377212       29.511106       10.691926
  H           32.379105       27.397075       10.162792
  H           32.234205       27.233797       11.932098
  O            7.174002       38.646399       12.943414
  C            6.244859       38.289262       12.237689
  O            4.928041       38.398008       12.570502
  C            4.203858       37.658849       11.618503
  C            5.105920       37.679781       10.424667
  O            6.401426       37.712823       11.005332
  H            4.053654       36.645687       12.008171
  H            3.233933       38.111570       11.411644
  H            4.965180       38.578658        9.818687
  H            4.991330       36.796415        9.786675
  O           30.229827       22.868429       30.487358
  C           29.549019       21.997653       29.970493
  O           28.197782       22.060531       29.806776
  C           27.774574       20.779897       29.409320
  C           28.998010       20.211262       28.761818
  O           30.054970       20.819442       29.489522
  H           27.479323       20.219821       30.303771
  H           26.929477       20.831367       28.722543
  H           29.078572       20.499687       27.710476
  H           29.054440       19.119760       28.838891
  O           36.038789       25.997787       25.926472
  C           35.669070       25.092392       26.656176
  O           34.646033       25.182792       27.551622
  C           34.702847       24.029722       28.354306
  C           35.383208       23.037798       27.464028
  O           36.246658       23.850955       26.683111
  H           35.293366       24.259182       29.248474
  H           33.708117       23.700643       28.655500
  H           34.678425       22.529089       26.801083
  H           35.957158       22.287837       28.019581
  O           23.671047       19.998579        3.799673
  C           22.780817       19.200583        3.555557
  O           21.513493       19.537402        3.185363
  C           20.745202       18.361143        3.242326
  C           21.767023       17.286331        3.042173
  O           22.932883       17.841758        3.632827
  H           20.270743       18.305034        4.228551
  H           19.974322       18.347249        2.471578
  H           21.961429       17.095839        1.983439
  H           21.497777       16.343898        3.531894
  O            3.047773       20.237395       28.554459
  C            4.245872       20.052708       28.693563
  O            4.842788       18.829448       28.756211
  C            6.171115       19.043696       29.164556
  C            6.437248       20.444262       28.709596
  O            5.163179       21.061825       28.818983
  H            6.218255       18.944901       30.254931
  H            6.852259       18.324672       28.708983
  H            6.762456       20.482999       27.666649
  H            7.172909       20.963950       29.333477
  O           39.115734       16.211444       28.544837
  C           38.982895       17.421544       28.461693
  O           40.001721       18.304811       28.265651
  C           39.473642       19.590746       28.476845
  C           38.020048       19.407668       28.171975
  O           37.778709       18.065215       28.567166
  H           39.647143       19.868733       29.522560
  H           39.942559       20.329283       27.826322
  H           37.808168       19.507225       27.104176
  H           37.376068       20.096111       28.730399
  O           18.359606       23.312965       12.030075
  C           19.167668       23.815022       12.794193
  O           20.040941       23.116478       13.572672
  C           20.610263       24.034644       14.472640
  C           20.488991       25.335163       13.742335
  O           19.300301       25.164746       12.984329
  H           20.023527       24.021426       15.398094
  H           21.646385       23.783721       14.700650
  H           21.325419       25.502350       13.058641
  H           20.398270       26.195926       14.414166
  O           25.827149       29.534987       12.393973
  C           25.950048       29.258196       11.211948
  O           27.054760       29.525899       10.460585
  C           26.705966       29.282206        9.120415
  C           25.597102       28.284610        9.241349
  O           24.978128       28.644058       10.467835
  H           26.370168       30.224652        8.673275
  H           27.550184       28.894645        8.549806
  H           25.971901       27.260668        9.319250
  H           24.879186       28.341154        8.415577
  O           14.558782        9.448920       26.807953
  C           15.189027        9.506745       27.851192
  O           15.466429        8.440659       28.653133
  C           15.982004        8.957033       29.855065
  C           16.555089       10.273378       29.432916
  O           15.699292       10.666824       28.370178
  H           15.155298        9.072220       30.565129
  H           16.735588        8.297030       30.285189
  H           17.574285       10.174369       29.050244
  H           16.544523       11.020900       30.233915
  O            6.204161       13.522660       36.287089
  C            6.381792       13.712205       35.094856
  O            7.153257       14.705743       34.571097
  C            6.899170       14.734168       33.188443
  C            6.457350       13.333300       32.902501
  O            5.813630       12.950209       34.108928
  H            6.107163       15.466965       32.997048
  H            7.788801       15.010674       32.622225
  H            7.302854       12.664057       32.722952
  H            5.763356       13.268012       32.057155
  O           25.266152       33.479774       22.023994
  C           24.440336       34.234533       21.536893
  O           24.563658       34.846109       20.325544
  C           23.540075       35.806955       20.247119
  C           22.498245       35.259399       21.171334
  O           23.268538       34.583049       22.154085
  H           23.939332       36.767053       20.593104
  H           23.170781       35.918032       19.227421
  H           21.845105       34.537958       20.673408
  H           21.883287       36.039995       21.632849
  O            5.409804       27.302642       15.653865
  C            5.195074       26.107362       15.772596
  O            5.191703       25.430827       16.955342
  C            5.153733       24.060637       16.641912
  C            4.505546       24.045705       15.293198
  O            4.936803       25.270996       14.719368
  H            6.182264       23.683569       16.612884
  H            4.584661       23.495380       17.380249
  H            3.414516       24.049855       15.361285
  H            4.822450       23.197753       14.675905
  F           38.710770       31.407048       13.519997
  P           38.437334       32.880627       14.160854
  F           37.170127       32.283155       14.993989
  F           39.425422       32.522167       15.406682
  F           38.163897       34.354205       14.801711
  F           39.704540       33.478098       13.327719
  F           37.449245       33.239086       12.915026
  F            2.581461        5.534772       14.597069
  P            2.840555        5.544589       12.987822
  F            1.344866        4.944549       12.743351
  F            2.246683        7.060094       12.901452
  F            3.099649        5.554407       11.378576
  F            4.336244        6.144630       13.232294
  F            3.434428        4.029084       13.074192
  F           33.739221       27.666786       26.573119
  P           34.291290       29.055511       25.922303
  F           34.608905       29.628686       27.414780
  F           35.791704       28.423204       25.845832
  F           34.843360       30.444236       25.271486
  F           33.973676       28.482335       24.429825
  F           32.790877       29.687818       25.998773
  F           21.951057       21.177471       22.919315
  P           22.786635       20.099241       22.027054
  F           22.383291       18.918618       23.076026
  F           21.446477       19.782303       21.155029
  F           23.622213       19.021012       21.134793
  F           23.189979       21.279865       20.978082
  F           24.126793       20.416180       22.899079
  F           39.227716       27.801794       16.392889
  P           37.844549       26.940493       16.349175
  F           38.398044       26.117276       15.055785
  F           38.505906       25.828119       17.340201
  F           36.461382       26.079193       16.305461
  F           37.291054       27.763710       17.642565
  F           37.183192       28.052867       15.358149
  F           24.479878       37.688813        3.998196
  P           24.954622       37.268690        2.496525
  F           23.746728       38.162342        1.864640
  F           25.940781       38.565526        2.445477
  F           25.429365       36.848568        0.994854
  F           26.162516       36.375039        3.128410
  F           23.968462       35.971854        2.547573
  F           17.222183       32.971160       24.867475
  P           15.938868       32.280835       24.137095
  F           16.205322       30.904905       24.969392
  F           14.969845       32.816717       25.333225
  F           14.655552       31.590511       23.406715
  F           15.672413       33.656766       23.304798
  F           16.907890       31.744954       22.940965
  F           17.922282       14.597038       32.107041
  P           17.118454       15.617394       33.091742
  F           18.536374       16.182805       33.663329
  F           17.134688       16.755850       31.925314
  F           16.314627       16.637750       34.076442
  F           15.700534       15.051982       32.520154
  F           17.102220       14.478937       34.258169
  F            1.029281       20.366600       12.344974
  P            1.964725       21.284811       13.313858
  F            2.861066       19.976031       13.688782
  F            2.953875       21.602436       12.057834
  F            2.900168       22.203021       14.282741
  F            1.068384       22.593590       12.938933
  F            0.975575       20.967185       14.569882
  F           23.782848        2.143863       35.105888
  P           22.566721        2.590353       36.095121
  F           21.487054        2.244204       34.924052
  F           22.456016        1.061390       36.649122
  F           21.350594        3.036844       37.084353
  F           23.646387        2.936502       37.266189
  F           22.677426        4.119316       35.541119
  F            8.463410       34.030141       34.693160
  P            9.772638       33.537150       35.529690
  F            9.439970       34.628703       36.693624
  F            8.860413       32.431541       36.305819
  F           11.081866       33.044158       36.366219
  F           10.105306       32.445596       34.365756
  F           10.684863       34.642758       34.753561
  F           27.760204       31.084714       29.319902
  P           27.732456       30.992166       27.692768
  F           27.867390       29.370253       27.782719
  F           26.108287       30.859000       27.728040
  F           27.704708       30.899618       26.065634
  F           27.597521       32.614079       27.602818
  F           29.356624       31.125332       27.657497
  F           14.989514       30.268428       17.727093
  P           15.191210       30.418027       19.337633
  F           13.573930       30.461697       19.536117
  F           15.166278       28.795494       19.491468
  F           15.392907       30.567626       20.948173
  F           16.808491       30.374357       19.139149
  F           15.216143       32.040560       19.183798
  F            9.692732       18.607175       34.204396
  P            8.941033       18.309901       35.619838
  F            8.074622       17.125154       34.910891
  F           10.099126       17.230595       36.008190
  F            8.189333       18.012627       37.035280
  F            9.807443       19.494648       36.328786
  F            7.782939       19.389207       35.231487
  F           26.562778       39.862404       24.346721
  P           25.241484       39.017365       24.790558
  F           25.040913       40.004181       26.072301
  F           24.308289       40.001743       23.886653
  F           23.920191       38.172325       25.234395
  F           25.442056       38.030548       23.508815
  F           26.174680       38.032986       25.694463
  F           29.080701       29.157178       14.895250
  P           29.597487       28.534344       13.480361
  F           29.587259       30.024788       12.820533
  F           31.143362       28.752419       13.948993
  F           30.114273       27.911511       12.065472
  F           29.607715       27.043901       14.140190
  F           28.051613       28.316269       13.011730
  F           38.301357       30.392368       38.779201
  P           37.880726       30.067525       37.238278
  F           39.421428       29.652573       36.905183
  F           37.554833       28.525062       37.652406
  F           37.460094       29.742682       35.697354
  F           36.340024       30.482477       37.571373
  F           38.206619       31.609988       36.824150
  F           16.353548       12.760875       28.537121
  P           15.620116       13.044727       27.109393
  F           16.271756       11.679174       26.503151
  F           14.318446       12.201169       27.610357
  F           14.886684       13.328580       25.681666
  F           14.968476       14.410281       27.715635
  F           16.921786       13.888286       26.608430
  F           16.723633       26.569148        8.670243
  P           17.406904       26.484625       10.147706
  F           18.831840       26.961507        9.516009
  F           17.007406       28.041012       10.421496
  F           18.090175       26.400103       11.625169
  F           15.981968       26.007744       10.779404
  F           17.806402       24.928239        9.873916
  F            5.048028       33.888333       12.345667
  P            5.551246       34.111402       10.811421
  F            6.947357       33.344753       11.157866
  F            4.877045       32.690349       10.383678
  F            6.054464       34.334470        9.277174
  F            4.155135       34.878050       10.464975
  F            6.225446       35.532454       11.239163
  F            2.394112       31.331415       15.261494
  P            3.066333       32.794462       15.515490
  F            1.862372       33.494656       14.668669
  F            2.197140       32.956087       16.884899
  F            3.738554       34.257508       15.769486
  F            4.270294       32.094267       16.362311
  F            3.935526       32.632836       14.146081
  F           12.719106        4.184027       27.204375
  P           11.727759        5.254960       27.930484
  F           10.823956        5.336379       26.576449
  F           10.801870        4.028838       28.474777
  F           10.736413        6.325892       28.656593
  F           12.631562        5.173540       29.284519
  F           12.653649        6.481081       27.386191
  F            3.563416       12.424865        6.024012
  P            3.896917       11.339196        7.193200
  F            2.658075       11.915714        8.081906
  F            2.891458       10.268752        6.486021
  F            4.230419       10.253527        8.362388
  F            5.135759       10.762678        6.304494
  F            4.902376       12.409640        7.900379
  F           14.407177       15.764689       21.411045
  P           14.661240       15.952204       19.811924
  F           14.656682       14.333387       19.621374
  F           13.051168       15.986376       19.560128
  F           14.915303       16.139720       18.212802
  F           14.665798       17.571022       20.002473
  F           16.271312       15.918032       20.063719
  F           18.864326       24.903612       26.035592
  P           19.180205       25.395026       24.513872
  F           19.719867       26.822392       25.086839
  F           20.685491       24.780178       24.627785
  F           19.496084       25.886440       22.992152
  F           18.640543       23.967660       23.940905
  F           17.674919       26.009875       24.399959
  F           30.978823       12.529882       25.215489
  P           31.049725       11.032153       25.854771
  F           29.492006       10.783228       25.444345
  F           31.524473       10.439073       24.412630
  F           31.120626        9.534424       26.494053
  F           32.607443       11.281078       26.265197
  F           30.574976       11.625234       27.296911
  F           33.763558       23.438694       37.750929
  P           35.175985       24.045829       37.209321
  F           34.800206       25.495040       37.853898
  F           35.897610       23.612152       38.605058
  F           36.588411       24.652964       36.667713
  F           35.551763       22.596618       36.564744
  F           34.454359       24.479506       35.813584
  F           15.939046       34.701644       17.718710
  P           17.486011       35.071128       17.361946
  F           17.369608       36.426103       18.260496
  F           17.986260       34.243829       18.674283
  F           19.032976       35.440612       17.005183
  F           17.602414       33.716153       16.463396
  F           16.985762       35.898427       16.049609
  F           37.168934       37.346415       33.607687
  P           38.088467       38.673214       33.381935
  F           39.410175       37.731410       33.230304
  F           37.834604       38.575700       31.774781
  F           39.008000       40.000013       33.156184
  F           36.766759       39.615018       33.533566
  F           38.342330       38.770728       34.989090
  F           36.002500       14.581725       31.976149
  P           35.647309       13.350236       32.983211
  F           34.099998       13.377972       32.471393
  F           36.016859       12.282731       31.808151
  F           35.292119       12.118747       33.990274
  F           37.194621       13.322499       33.495030
  F           35.277760       14.417740       34.158272
  F            7.533526       29.778020       31.584038
  P            8.843191       28.811189       31.667180
  F            7.953395       27.558996       31.122043
  F            9.230410       29.203807       30.133292
  F           10.152857       27.844358       31.750323
  F            9.732987       30.063382       32.212318
  F            8.455973       28.418571       33.201068
  F           39.556773       21.411576        3.602114
  P           38.635658       20.066843        3.613932
  F           39.371186       19.551068        2.253831
  F           39.761467       19.303581        4.512200
  F           37.714543       18.722109        3.625751
  F           37.900131       20.582618        4.974034
  F           37.509849       20.830104        2.715665
  F           16.584453       20.605519       14.405774
  P           17.883724       20.977206       13.494379
  F           18.864436       20.616607       14.745407
  F           17.967371       19.431659       12.983314
  F           19.182996       21.348894       12.582983
  F           16.903012       21.337805       12.243350
  F           17.800078       22.522754       14.005443
  F            5.002910       23.499477       22.398984
  P            5.695232       22.792856       23.694468
  F            6.711051       21.983110       22.709926
  F            6.765606       24.018376       23.790906
  F            6.387553       22.086235       24.989951
  F            4.679412       23.602603       24.679009
  F            4.624857       21.567337       23.598029
  Li          32.608006       36.818585       31.455466
  Li          23.224872       32.861337       20.321788
  Li          31.214247       28.654063        8.594872
  Li          26.013850        6.517975       11.261958
  Li          17.669458        7.074784       25.300089
  Li          23.552411       31.645787       33.552360
  Li           8.630076       12.963719       13.761283
  Li           9.363128       18.927147       19.828513
  Li          18.877515       30.315192       15.585884
  Li           2.518926        9.516013       19.982237
  Li          23.476298       17.984200       36.450171
  Li          28.816390        7.090424       17.343310
  Li           8.889535        7.653645       26.092967
  Li          30.551239       33.896710       20.714195
  Li          37.619092       31.116431        7.168221
  Li          26.201883       28.397074        6.622888
  Li          34.036879       10.912784       36.965594
  Li          12.563076       28.161189        6.124581
  Li          23.226529        5.240566        5.590422
  Li          11.495724       13.249280       38.756006
  Li          29.239967       31.872778       10.897136
  Li          13.848122       16.121253        9.284142
  Li          35.141679        2.717800       17.517616
  Li           9.177280       23.912470        9.608152
  Li          20.507895       32.230254       38.990360
  Li          23.802692       29.998037       28.652173
  Li          35.071596       11.302664       29.916412
  Li          22.495505        1.365823       18.147005
  Li          40.002490       31.498034        4.752300
  Li          16.456883       10.352585       33.399552
  Li          37.515582       19.969354       23.520766
  Li          35.050771       39.931584       12.123861
  Li          21.275467       23.072332       22.028976
  Li          39.321081       29.896903       22.155521
